     Program PWSCF v.6.4.1 starts on  1Aug2021 at 10: 0:38

     R & G space division:  proc/nbgrp/npool/nimage =      64
     Waiting for input...
     Reading input from standard input

     Current dimensions of program PWSCF are:
     Max number of different atomic species (ntypx) = 10
     Max number of k-points (npk) =  40000
     Max angular momentum in pseudopotentials (lmaxx) =  3

     IMPORTANT: XC functional enforced from input :
     Exchange-correlation      = HSE ( 1  4 12  4 0 0)
     EXX-fraction              =        0.25
     Any further DFT definition will be discarded
     Please, verify this is what you really want

               file N.pbe-n-kjpaw_psl.1.0.0.UPF: wavefunction(s)  2S renormalized
               file C.pbe-n-kjpaw_psl.1.0.0.UPF: wavefunction(s)  2S 2P renormalized
               file C.pbe-n-kjpaw_psl.1.0.0.UPF: wavefunction(s)  2S 2P renormalized
               file C.pbe-n-kjpaw_psl.1.0.0.UPF: wavefunction(s)  2S 2P renormalized
     EXX fraction changed:   0.32
     EXX Screening parameter changed:    0.0455000

     Parameters for DFT-D3 Dispersion Correction:
       Reference C6 values for interpolation:

         atom   Coordination number   C6
         B          0.000           214.36
         B          0.971           150.74
         B          1.944           106.23
         B          2.913            62.89
         B          4.586            56.06
         C1         0.000            98.23
         C1         0.987            86.49
         C1         1.998            58.72
         C1         2.999            51.56
         C1         3.984            36.41
         C2         0.000            98.23
         C2         0.987            86.49
         C2         1.998            58.72
         C2         2.999            51.56
         C2         3.984            36.41
         C3         0.000            98.23
         C3         0.987            86.49
         C3         1.998            58.72
         C3         2.999            51.56
         C3         3.984            36.41
         N          0.000            50.54
         N          0.994            44.25
         N          2.014            39.35
         N          2.990            31.16

       Values used:

         atom   Coordination number  R0_AB[au]  C6      C8
         B          3.325            3.039     62.90   2506.24
         B          3.317            3.039     62.90   2506.44
         B          3.317            3.039     62.90   2506.43
         B          3.325            3.039     62.90   2506.25
         B          3.327            3.039     62.90   2506.21
         B          3.324            3.039     62.90   2506.27
         B          3.326            3.039     62.90   2506.22
         B          3.325            3.039     62.90   2506.26
         B          3.323            3.039     62.90   2506.30
         B          3.303            3.039     62.91   2506.76
         B          3.322            3.039     62.90   2506.33
         B          3.329            3.039     62.90   2506.15
         B          3.325            3.039     62.90   2506.24
         B          3.324            3.039     62.90   2506.27
         B          3.325            3.039     62.90   2506.26
         B          3.327            3.039     62.90   2506.21
         B          3.297            3.039     62.91   2506.88
         B          3.297            3.039     62.91   2506.90
         B          3.336            3.039     62.89   2505.99
         B          3.329            3.039     62.90   2506.15
         B          3.327            3.039     62.90   2506.21
         B          3.323            3.039     62.90   2506.31
         B          3.319            3.039     62.90   2506.40
         B          3.314            3.039     62.90   2506.51
         C2         3.249            2.750     49.43   1429.56
         B          3.297            3.039     62.91   2506.90
         B          3.322            3.039     62.90   2506.33
         B          3.325            3.039     62.90   2506.25
         B          3.321            3.039     62.90   2506.36
         B          3.319            3.039     62.90   2506.39
         B          3.315            3.039     62.90   2506.50
         B          3.314            3.039     62.90   2506.51
         B          3.297            3.039     62.91   2506.88
         B          3.303            3.039     62.91   2506.76
         B          3.317            3.039     62.90   2506.43
         B          3.316            3.039     62.90   2506.45
         B          3.318            3.039     62.90   2506.42
         B          3.319            3.039     62.90   2506.39
         B          3.319            3.039     62.90   2506.40
         B          3.327            3.039     62.90   2506.21
         B          3.323            3.039     62.90   2506.30
         B          3.317            3.039     62.90   2506.44
         B          3.319            3.039     62.90   2506.40
         B          3.316            3.039     62.90   2506.45
         B          3.321            3.039     62.90   2506.36
         B          3.323            3.039     62.90   2506.31
         B          3.325            3.039     62.90   2506.26
         B          3.325            3.039     62.90   2506.26
         B          3.325            3.039     62.90   2506.24
         N          3.129            2.478     31.22    688.74
         N          3.128            2.478     31.22    688.75
         N          3.125            2.478     31.22    688.79
         N          3.128            2.478     31.22    688.75
         N          3.130            2.478     31.22    688.73
         N          3.129            2.478     31.22    688.75
         N          3.129            2.478     31.22    688.75
         N          3.129            2.478     31.22    688.75
         N          3.129            2.478     31.22    688.74
         N          3.124            2.478     31.22    688.79
         N          3.123            2.478     31.22    688.80
[...]
         N          3.125            2.478     31.22    688.79
         N          3.126            2.478     31.22    688.77
         N          3.126            2.478     31.22    688.77
         N          3.127            2.478     31.22    688.76
         N          3.127            2.478     31.22    688.76
         N          3.129            2.478     31.22    688.74
         N          3.129            2.478     31.22    688.74
         N          3.128            2.478     31.22    688.75
         N          3.129            2.478     31.22    688.74
         N          3.126            2.478     31.22    688.77
         N          3.127            2.478     31.22    688.77
         N          3.129            2.478     31.22    688.75
         N          3.130            2.478     31.22    688.74
         N          3.129            2.478     31.22    688.75
         N          3.129            2.478     31.22    688.74

         Molecular C6 ( Ry / a.u.^6 ) =    437698.51

     gamma-point specific algorithms are used
     Message from routine setup :
     BEWARE: nonlinear core correction is not consistent with hybrid XC

     EXX: grid of k+q points same as grid of k-points

     bravais-lattice index     =            0
     lattice parameter (alat)  =      33.2346  a.u.
     unit-cell volume          =   36184.4017 (a.u.)^3
     number of atoms/cell      =           98
     number of atomic types    =            5
     number of electrons       =       391.00
     number of Kohn-Sham states=          245
     kinetic-energy cutoff     =      25.7300  Ry
     charge density cutoff     =     102.9200  Ry
     cutoff for Fock operator  =     102.9200  Ry
     convergence threshold     =      1.0E-06
     mixing beta               =       0.7000
     number of iterations used =            8  plain     mixing
     Exchange-correlation      = HSE ( 1  4 12  4 0 0)
     EXX-fraction              =        0.32

     celldm(1)=  33.234611  celldm(2)=   0.000000  celldm(3)=   0.000000
     celldm(4)=   0.000000  celldm(5)=   0.000000  celldm(6)=   0.000000

     crystal axes: (cart. coord. in units of alat)
               a(1) = (   1.000640  -0.000349   0.000000 )
               a(2) = (  -0.500622   0.866405   0.000000 )
               a(3) = (   0.000000   0.000000   1.137204 )

     reciprocal axes: (cart. coord. in units 2 pi/alat)
               b(1) = (  0.999562  0.577562  0.000000 )
               b(2) = (  0.000402  1.154427  0.000000 )
               b(3) = (  0.000000  0.000000  0.879350 )

     PseudoPot. # 1 for B  read from file:
     ./pseudo/B.pbe-n-kjpaw_psl.1.0.0.UPF
     MD5 check sum: 8c825a5969375aca5c2c6ad5945b3059
     Pseudo is Projector augmented-wave + core cor, Zval =  3.0
     Generated using "atomic" code by A. Dal Corso v.6.3
     Shape of augmentation charge: PSQ
     Using radial grid of 1059 points,  4 beta functions with:
                l(1) =   0
                l(2) =   0
                l(3) =   1
                l(4) =   1
     Q(r) pseudized with 0 coefficients

     PseudoPot. # 2 for N  read from file:
     ./pseudo/N.pbe-n-kjpaw_psl.1.0.0.UPF
     MD5 check sum: 14c48229446f9f2d411169a3abcbc3fa
     Pseudo is Projector augmented-wave + core cor, Zval =  5.0
     Generated using "atomic" code by A. Dal Corso v.6.3
     Shape of augmentation charge: PSQ
     Using radial grid of 1085 points,  4 beta functions with:
                l(1) =   0
                l(2) =   0
                l(3) =   1
                l(4) =   1
     Q(r) pseudized with 0 coefficients

     PseudoPot. # 3 for C  read from file:
     ./pseudo/C.pbe-n-kjpaw_psl.1.0.0.UPF
     MD5 check sum: 5f16ad9a65e90284d1d834d4ab3b0f7d
     Pseudo is Projector augmented-wave + core cor, Zval =  4.0
     Generated using "atomic" code by A. Dal Corso v.6.3
     Shape of augmentation charge: PSQ
     Using radial grid of 1073 points,  4 beta functions with:
                l(1) =   0
                l(2) =   0
                l(3) =   1
                l(4) =   1
     Q(r) pseudized with 0 coefficients

[...]

     PseudoPot. # 5 for C  read from file:
     ./pseudo/C.pbe-n-kjpaw_psl.1.0.0.UPF
     MD5 check sum: 5f16ad9a65e90284d1d834d4ab3b0f7d
     Pseudo is Projector augmented-wave + core cor, Zval =  4.0
     Generated using "atomic" code by A. Dal Corso v.6.3
     Shape of augmentation charge: PSQ
     Using radial grid of 1073 points,  4 beta functions with:
                l(1) =   0
                l(2) =   0
                l(3) =   1
                l(4) =   1
     Q(r) pseudized with 0 coefficients

     atomic species   valence    mass     pseudopotential
        B              3.00    10.00000     B ( 1.00)
        N              5.00    14.00000     N ( 1.00)
        C1             4.00    12.00000     C ( 1.00)
        C2             4.00    12.00000     C ( 1.00)
        C3             4.00    12.00000     C ( 1.00)

     Starting magnetic structure
     atomic species   magnetization
        B            0.000
        N            0.000
        C1           1.000
[...]
     atom:    2    charge:    0.8511    magn:    0.0003    constr:    0.0000
     atom:    3    charge:    0.8514    magn:    0.0008    constr:    0.0000
     atom:    4    charge:    0.8538    magn:   -0.0000    constr:    0.0000
     atom:    5    charge:    0.8563    magn:    0.0000    constr:    0.0000
     atom:    6    charge:    0.8557    magn:    0.0001    constr:    0.0000
     atom:    7    charge:    0.8561    magn:   -0.0000    constr:    0.0000
     atom:    8    charge:    0.8527    magn:    0.0001    constr:    0.0000
     atom:    9    charge:    0.8550    magn:   -0.0003    constr:    0.0000
     atom:   10    charge:    0.8409    magn:    0.0031    constr:    0.0000
     atom:   11    charge:    0.8524    magn:    0.0005    constr:    0.0000
     atom:   12    charge:    0.8555    magn:    0.0001    constr:    0.0000
     atom:   13    charge:    0.8525    magn:   -0.0000    constr:    0.0000
     atom:   14    charge:    0.8557    magn:    0.0001    constr:    0.0000
     atom:   15    charge:    0.8549    magn:   -0.0001    constr:    0.0000
     atom:   16    charge:    0.8561    magn:    0.0001    constr:    0.0000
     atom:   17    charge:    0.8651    magn:    0.0025    constr:    0.0000
     atom:   18    charge:    0.8554    magn:    0.0075    constr:    0.0000
     atom:   19    charge:    0.8652    magn:   -0.0004    constr:    0.0000
     atom:   20    charge:    0.8555    magn:    0.0001    constr:    0.0000
     atom:   21    charge:    0.8563    magn:    0.0000    constr:    0.0000
     atom:   22    charge:    0.8514    magn:    0.0000    constr:    0.0000
     atom:   23    charge:    0.8500    magn:    0.0003    constr:    0.0000
     atom:   24    charge:    0.8484    magn:   -0.0007    constr:    0.0000
     atom:   25    charge:    1.6257    magn:   -0.0253    constr:    0.0000
     atom:   26    charge:    0.8554    magn:    0.0076    constr:    0.0000
     atom:   27    charge:    0.8524    magn:    0.0005    constr:    0.0000
     atom:   28    charge:    0.8538    magn:   -0.0000    constr:    0.0000
     atom:   29    charge:    0.8511    magn:    0.0001    constr:    0.0000
     atom:   30    charge:    0.8520    magn:    0.0000    constr:    0.0000
     atom:   31    charge:    0.8522    magn:   -0.0003    constr:    0.0000
     atom:   32    charge:    0.8484    magn:   -0.0007    constr:    0.0000
     atom:   33    charge:    0.8650    magn:    0.0026    constr:    0.0000
     atom:   34    charge:    0.8408    magn:    0.0031    constr:    0.0000
     atom:   35    charge:    0.8514    magn:    0.0008    constr:    0.0000
     atom:   36    charge:    0.8498    magn:    0.0003    constr:    0.0000
     atom:   37    charge:    0.8517    magn:   -0.0000    constr:    0.0000
     atom:   38    charge:    0.8520    magn:    0.0000    constr:    0.0000
     atom:   39    charge:    0.8500    magn:    0.0003    constr:    0.0000
     atom:   40    charge:    0.8561    magn:    0.0001    constr:    0.0000
     atom:   41    charge:    0.8550    magn:   -0.0003    constr:    0.0000
     atom:   42    charge:    0.8511    magn:    0.0003    constr:    0.0000
     atom:   43    charge:    0.8488    magn:   -0.0000    constr:    0.0000
     atom:   44    charge:    0.8498    magn:    0.0003    constr:    0.0000
     atom:   45    charge:    0.8511    magn:    0.0001    constr:    0.0000
     atom:   46    charge:    0.8514    magn:    0.0000    constr:    0.0000
     atom:   47    charge:    0.8549    magn:   -0.0001    constr:    0.0000
     atom:   48    charge:    0.8527    magn:    0.0001    constr:    0.0000
     atom:   49    charge:    0.8560    magn:   -0.0000    constr:    0.0000
     atom:   50    charge:    2.7594    magn:    0.0005    constr:    0.0000
     atom:   51    charge:    2.7527    magn:   -0.0002    constr:    0.0000
     atom:   52    charge:    2.7491    magn:    0.0030    constr:    0.0000
     atom:   53    charge:    2.7544    magn:    0.0000    constr:    0.0000
     atom:   54    charge:    2.7566    magn:    0.0001    constr:    0.0000
     atom:   55    charge:    2.7558    magn:    0.0000    constr:    0.0000
     atom:   56    charge:    2.7509    magn:   -0.0001    constr:    0.0000
     atom:   57    charge:    2.7534    magn:    0.0003    constr:    0.0000
     atom:   58    charge:    2.7510    magn:    0.0041    constr:    0.0000
     atom:   59    charge:    2.7498    magn:    0.0066    constr:    0.0000
     atom:   60    charge:    2.7444    magn:    0.0127    constr:    0.0000
[...]
     atom:   84    charge:    2.7492    magn:    0.0030    constr:    0.0000
     atom:   85    charge:    2.7517    magn:    0.0004    constr:    0.0000
     atom:   86    charge:    2.7464    magn:   -0.0001    constr:    0.0000
     atom:   87    charge:    2.7500    magn:   -0.0000    constr:    0.0000
     atom:   88    charge:    2.7507    magn:    0.0002    constr:    0.0000
     atom:   89    charge:    2.7532    magn:    0.0003    constr:    0.0000
     atom:   90    charge:    2.7510    magn:    0.0041    constr:    0.0000
     atom:   91    charge:    2.7527    magn:   -0.0002    constr:    0.0000
     atom:   92    charge:    2.7601    magn:   -0.0001    constr:    0.0000
     atom:   93    charge:    2.7517    magn:    0.0004    constr:    0.0000
     atom:   94    charge:    2.7584    magn:    0.0000    constr:    0.0000
     atom:   95    charge:    2.7534    magn:   -0.0000    constr:    0.0000
     atom:   96    charge:    2.7618    magn:    0.0000    constr:    0.0000
     atom:   97    charge:    2.7534    magn:    0.0003    constr:    0.0000
     atom:   98    charge:    2.7595    magn:    0.0005    constr:    0.0000

     End of self-consistent calculation

 ------ SPIN UP ------------

          k = 0.0000 0.0000 0.0000 ( 39925 PWs)   bands (ev):

[...]

 ------ SPIN DOWN ----------

[...]

     highest occupied, lowest unoccupied level (ev):    -3.6076   -2.9487

!    total energy              =   -1937.91836855 Ry
     Harris-Foulkes estimate   =   -1937.91836885 Ry
     estimated scf accuracy    <       0.00000082 Ry

[...]

     convergence has been achieved in  12 iterations

     Using ACE for calculation of exact exchange

[...]

     EXX: now go back to refine exchange calculation

[...]

     total energy              =   -1713.47479011 Ry
     Harris-Foulkes estimate   =   -1713.47478764 Ry
     est. exchange err (dexx)  =       0.04316452 Ry
     - averaged Fock potential =     193.71914078 Ry
     + Fock energy (ACE)       =     -96.94772677 Ry

[...]

     total energy              =   -1713.48326853 Ry
     Harris-Foulkes estimate   =   -1713.48326915 Ry
     estimated scf accuracy    <       0.00000162 Ry

[...]

     iteration #  1     ecut=    25.73 Ry     beta= 0.70
     CG style diagonalization
     ethr =  4.13E-10,  avg # of iterations =  3.8

[...]

     total energy              =   -1713.48328939 Ry
     Harris-Foulkes estimate   =   -1713.48328586 Ry
     est. exchange err (dexx)  =       0.00000162 Ry
     - averaged Fock potential =     194.03038219 Ry
     + Fock energy (ACE)       =     -97.01608595 Ry

     EXX: now go back to refine exchange calculation

     Self-consistent Calculation

     iteration #  1     ecut=    25.73 Ry     beta= 0.70
     CG style diagonalization
     c_bands:  1 eigenvalues not converged
     ethr =  4.13E-10,  avg # of iterations =  3.5

     negative rho (up, down):  3.391E+00 4.923E-03

     Magnetic moment per site:
     atom:    1    charge:    0.8256    magn:   -0.0000    constr:    0.0000
     atom:    2    charge:    0.8206    magn:    0.0002    constr:    0.0000
     atom:    3    charge:    0.8209    magn:    0.0004    constr:    0.0000
     atom:    4    charge:    0.8235    magn:   -0.0000    constr:    0.0000
     atom:    5    charge:    0.8259    magn:    0.0000    constr:    0.0000
     atom:    6    charge:    0.8253    magn:    0.0000    constr:    0.0000
     atom:    7    charge:    0.8257    magn:   -0.0000    constr:    0.0000
     atom:    8    charge:    0.8221    magn:    0.0000    constr:    0.0000
     atom:    9    charge:    0.8246    magn:   -0.0003    constr:    0.0000
     atom:   10    charge:    0.8102    magn:    0.0022    constr:    0.0000
     atom:   11    charge:    0.8220    magn:    0.0003    constr:    0.0000
     atom:   12    charge:    0.8252    magn:    0.0000    constr:    0.0000
     atom:   13    charge:    0.8221    magn:   -0.0000    constr:    0.0000
     atom:   14    charge:    0.8253    magn:    0.0000    constr:    0.0000
     atom:   15    charge:    0.8245    magn:   -0.0001    constr:    0.0000
     atom:   16    charge:    0.8257    magn:   -0.0001    constr:    0.0000
     atom:   17    charge:    0.8367    magn:    0.0015    constr:    0.0000
     atom:   18    charge:    0.8267    magn:    0.0059    constr:    0.0000
     atom:   19    charge:    0.8350    magn:   -0.0004    constr:    0.0000
     atom:   20    charge:    0.8252    magn:    0.0000    constr:    0.0000
     atom:   21    charge:    0.8259    magn:    0.0000    constr:    0.0000
     atom:   22    charge:    0.8209    magn:    0.0000    constr:    0.0000
     atom:   23    charge:    0.8196    magn:    0.0001    constr:    0.0000
     atom:   24    charge:    0.8178    magn:   -0.0015    constr:    0.0000
     atom:   25    charge:    1.5846    magn:   -0.0534    constr:    0.0000
     atom:   26    charge:    0.8267    magn:    0.0059    constr:    0.0000
     atom:   27    charge:    0.8220    magn:    0.0003    constr:    0.0000
     atom:   28    charge:    0.8235    magn:   -0.0000    constr:    0.0000
     atom:   29    charge:    0.8206    magn:    0.0000    constr:    0.0000
     atom:   30    charge:    0.8215    magn:   -0.0000    constr:    0.0000
     atom:   31    charge:    0.8216    magn:   -0.0004    constr:    0.0000
     atom:   32    charge:    0.8178    magn:   -0.0016    constr:    0.0000
     atom:   33    charge:    0.8367    magn:    0.0015    constr:    0.0000
     atom:   34    charge:    0.8102    magn:    0.0022    constr:    0.0000
     atom:   35    charge:    0.8209    magn:    0.0004    constr:    0.0000
     atom:   36    charge:    0.8193    magn:    0.0001    constr:    0.0000
     atom:   37    charge:    0.8213    magn:   -0.0000    constr:    0.0000
     atom:   38    charge:    0.8215    magn:   -0.0000    constr:    0.0000
     atom:   39    charge:    0.8196    magn:    0.0001    constr:    0.0000
     atom:   40    charge:    0.8257    magn:   -0.0001    constr:    0.0000
     atom:   41    charge:    0.8246    magn:   -0.0003    constr:    0.0000
     atom:   42    charge:    0.8206    magn:    0.0002    constr:    0.0000
     atom:   43    charge:    0.8180    magn:   -0.0000    constr:    0.0000
     atom:   44    charge:    0.8193    magn:    0.0001    constr:    0.0000
     atom:   45    charge:    0.8206    magn:    0.0000    constr:    0.0000
     atom:   46    charge:    0.8209    magn:    0.0000    constr:    0.0000
     atom:   47    charge:    0.8245    magn:   -0.0001    constr:    0.0000
     atom:   48    charge:    0.8221    magn:    0.0000    constr:    0.0000
     atom:   49    charge:    0.8256    magn:   -0.0000    constr:    0.0000
     atom:   50    charge:    2.7350    magn:    0.0003    constr:    0.0000
     atom:   51    charge:    2.7282    magn:   -0.0001    constr:    0.0000
     atom:   52    charge:    2.7246    magn:    0.0018    constr:    0.0000
     atom:   53    charge:    2.7300    magn:    0.0000    constr:    0.0000
     atom:   54    charge:    2.7322    magn:    0.0001    constr:    0.0000
     atom:   55    charge:    2.7313    magn:    0.0000    constr:    0.0000
     atom:   56    charge:    2.7263    magn:   -0.0000    constr:    0.0000
     atom:   57    charge:    2.7289    magn:    0.0002    constr:    0.0000
     atom:   58    charge:    2.7265    magn:    0.0028    constr:    0.0000
     atom:   59    charge:    2.7252    magn:    0.0065    constr:    0.0000
     atom:   60    charge:    2.7198    magn:    0.0105    constr:    0.0000
[...]
     atom:   84    charge:    2.7246    magn:    0.0018    constr:    0.0000
     atom:   85    charge:    2.7271    magn:    0.0002    constr:    0.0000
     atom:   86    charge:    2.7218    magn:   -0.0001    constr:    0.0000
     atom:   87    charge:    2.7254    magn:   -0.0000    constr:    0.0000
     atom:   88    charge:    2.7261    magn:    0.0001    constr:    0.0000
     atom:   89    charge:    2.7288    magn:    0.0003    constr:    0.0000
     atom:   90    charge:    2.7265    magn:    0.0028    constr:    0.0000
     atom:   91    charge:    2.7282    magn:   -0.0001    constr:    0.0000
     atom:   92    charge:    2.7357    magn:   -0.0000    constr:    0.0000
     atom:   93    charge:    2.7271    magn:    0.0002    constr:    0.0000
     atom:   94    charge:    2.7338    magn:    0.0000    constr:    0.0000
     atom:   95    charge:    2.7289    magn:   -0.0000    constr:    0.0000
     atom:   96    charge:    2.7374    magn:    0.0000    constr:    0.0000
     atom:   97    charge:    2.7289    magn:    0.0002    constr:    0.0000
     atom:   98    charge:    2.7350    magn:    0.0003    constr:    0.0000

     End of self-consistent calculation

 ------ SPIN UP ------------

[...]

 ------ SPIN DOWN ----------

          k = 0.0000 0.0000 0.0000 ( 39925 PWs)   bands (ev):

   -25.2434 -25.0145 -24.8205 -24.8132 -24.7941 -24.7329 -24.6790 -24.2276
   -24.0105 -23.9945 -23.9887 -23.9006 -23.8876 -23.7552 -23.6187 -23.6088
   -23.5979 -23.4409 -23.4294 -22.8422 -22.6401 -22.6392 -22.6334 -22.6224
   -22.6195 -22.6117 -22.6116 -22.5766 -22.5680 -22.3911 -22.3859 -22.2400
   -22.1845 -22.1843 -22.1618 -21.9668 -21.9622 -21.7208 -21.7103 -21.6985
   -21.6885 -21.6186 -21.6010 -21.5418 -21.5180 -21.5159 -21.5038 -19.8907
   -17.4749 -15.4992 -15.1347 -15.1283 -15.1179 -15.0789 -15.0716 -14.9927
   -14.9073 -14.8704 -14.8704 -14.8022 -14.7550 -14.4774 -14.3993 -14.3899
   -14.3552 -14.2922 -14.2730 -13.7812 -13.6580 -13.6386 -13.6205 -13.6107
   -13.6010 -13.5925 -13.5911 -13.5480 -13.5208 -13.2966 -13.2365 -13.0359
   -12.8457 -12.8326 -12.8016 -12.7937 -12.6244 -12.1369 -12.1051 -12.0692
   -11.9824 -11.9301 -11.8623 -11.4177 -11.3414 -11.3156 -11.2875 -11.2861
   -11.2831 -11.2194 -11.0205 -10.8924 -10.8865 -10.8527 -10.8471 -10.8378
   -10.8337 -10.8230 -10.8089 -10.7832 -10.7776 -10.7695 -10.7676 -10.7658
   -10.7216 -10.7131 -10.6996 -10.6957 -10.6275 -10.6169 -10.5914 -10.5114
   -10.4043 -10.3757 -10.1037 -10.0943 -10.0928 -10.0332  -9.9944  -9.7289
    -9.6776  -9.5687  -9.5566  -9.5456  -9.4459  -9.4247  -9.3634  -9.3095
    -9.3054  -9.2706  -9.2534  -9.2454  -9.2206  -9.2108  -9.1685  -9.1300
    -9.0737  -9.0120  -9.0049  -9.0004  -8.9893  -8.8157  -8.8146  -8.7907
    -8.7630  -8.7308  -8.6947  -8.5232  -8.3599  -8.2353  -7.8597  -7.8367
    -7.8300  -7.7728  -7.7418  -7.5486  -7.5414  -7.5404  -7.5300  -7.5270
    -7.5167  -7.5026  -7.4681  -7.4684  -7.4373  -7.3113  -7.2576  -7.2064
    -6.9193  -6.8474  -6.8413  -6.8241  -6.6631  -6.6589  -6.6287  -6.5492
    -6.1063  -6.0884  -6.0697  -6.0664  -5.9470  -5.9431  -5.8255  -5.7845
    -5.7798  -5.7710  -5.2249  -2.1565  -0.2855   0.0487   0.2789   0.3579
     0.3585   0.3602   0.3640   0.3689   0.3871   0.6768   0.6881   0.6884
     0.6906   0.6935   0.6978   0.9239   0.9246   0.9269   0.9296   0.9366
     0.9588   1.0734   1.3695   1.6538   1.6581   1.6586   1.6620   1.6675
     1.6682   1.6960   1.7035   1.7155   1.7449   1.7479   1.7469   1.8227
     1.9355   1.9604   1.9672   1.9696   1.9714   1.9725   1.9777   1.9797
     1.9815   1.9841   1.9857   1.9907   1.9910

     highest occupied, lowest unoccupied level (ev):    -4.7580   -2.1565

!    total energy              =   -1713.48329032 Ry
     Harris-Foulkes estimate   =   -1713.48329039 Ry
     estimated scf accuracy    <       0.00000029 Ry

     total magnetization       =     1.00 Bohr mag/cell
     absolute magnetization    =     1.44 Bohr mag/cell

     convergence has been achieved in   1 iterations

     Using ACE for calculation of exact exchange

!!   total energy              =   -1713.48329069 Ry
     Harris-Foulkes estimate   =   -1713.48329077 Ry
     est. exchange err (dexx)  =       0.00000038 Ry
     - averaged Fock potential =     194.03138058 Ry
     + Fock energy (ACE)       =     -97.01529501 Ry

     EXX self-consistency reached

     Writing output data file C2Cn.save/

     General routines

     Parallel routines

     EXX routines

     EXX+US  routines

     EXX+PAW routines

   This run was terminated on:  18:52:46   1Aug2021

   JOB DONE.