     Program PWSCF v.6.4.1 starts on  9Jun2021 at  1:33:26

     R & G space division:  proc/nbgrp/npool/nimage =      64
     Waiting for input...
     Reading input from standard input

     Current dimensions of program PWSCF are:
     Max number of different atomic species (ntypx) = 10
     Max number of k-points (npk) =  40000
     Max angular momentum in pseudopotentials (lmaxx) =  3
               file N.pbe-n-kjpaw_psl.1.0.0.UPF: wavefunction(s)  2S renormalized
               file C.pbe-n-kjpaw_psl.1.0.0.UPF: wavefunction(s)  2S 2P renormalized
               file C.pbe-n-kjpaw_psl.1.0.0.UPF: wavefunction(s)  2S 2P renormalized
               file C.pbe-n-kjpaw_psl.1.0.0.UPF: wavefunction(s)  2S 2P renormalized

     Parameters for DFT-D3 Dispersion Correction:
       Reference C6 values for interpolation:

         atom   Coordination number   C6
         B          0.000           214.36
         B          0.971           150.74
         B          1.944           106.23
         B          2.913            62.89
         B          4.586            56.06
         C1         0.000            98.23
         C1         0.987            86.49
         C1         1.998            58.72
         C1         2.999            51.56
         C1         3.984            36.41
         C2         0.000            98.23
         C2         0.987            86.49
         C2         1.998            58.72
         C2         2.999            51.56
         C2         3.984            36.41
         C3         0.000            98.23
         C3         0.987            86.49
         C3         1.998            58.72
         C3         2.999            51.56
         C3         3.984            36.41
         N          0.000            50.54
         N          0.994            44.25
         N          2.014            39.35
         N          2.990            31.16

       Values used:

         atom   Coordination number  R0_AB[au]  C6      C8
         B          3.326            3.039     62.90   2506.22
         B          3.317            3.039     62.90   2506.44
         B          3.318            3.039     62.90   2506.42
         B          3.324            3.039     62.90   2506.28
         B          3.325            3.039     62.90   2506.25
         B          3.323            3.039     62.90   2506.29
         B          3.326            3.039     62.90   2506.23
         B          3.324            3.039     62.90   2506.28
         B          3.323            3.039     62.90   2506.30
         B          3.306            3.039     62.91   2506.69
         B          3.319            3.039     62.90   2506.39
         B          3.325            3.039     62.90   2506.26
         B          3.323            3.039     62.90   2506.30
         B          3.323            3.039     62.90   2506.29
         B          3.323            3.039     62.90   2506.29
         B          3.326            3.039     62.90   2506.24
         B          3.293            3.039     62.92   2506.97
         B          3.280            3.039     62.92   2507.27
         B          3.322            3.039     62.90   2506.33
         B          3.325            3.039     62.90   2506.26
         B          3.325            3.039     62.90   2506.25
         B          3.322            3.039     62.90   2506.33
         B          3.317            3.039     62.90   2506.43
         B          3.304            3.039     62.91   2506.73
         C2         3.236            2.750     49.61   1434.81
         B          3.280            3.039     62.92   2507.27
         B          3.319            3.039     62.90   2506.40
         B          3.324            3.039     62.90   2506.28
         B          3.319            3.039     62.90   2506.39
         B          3.316            3.039     62.90   2506.46
         B          3.305            3.039     62.91   2506.71
         B          3.304            3.039     62.91   2506.73
         B          3.293            3.039     62.92   2506.97
         B          3.306            3.039     62.91   2506.69
         B          3.318            3.039     62.90   2506.42
         B          3.316            3.039     62.90   2506.47
         B          3.316            3.039     62.90   2506.46
         B          3.316            3.039     62.90   2506.46
         B          3.317            3.039     62.90   2506.43
         B          3.326            3.039     62.90   2506.23
         B          3.323            3.039     62.90   2506.30
         B          3.317            3.039     62.90   2506.44
         B          3.319            3.039     62.90   2506.40
         B          3.316            3.039     62.90   2506.47
         B          3.319            3.039     62.90   2506.39
         B          3.322            3.039     62.90   2506.33
         B          3.323            3.039     62.90   2506.29
         B          3.324            3.039     62.90   2506.28
         B          3.326            3.039     62.90   2506.22
         N          3.129            2.478     31.22    688.74
         N          3.129            2.478     31.22    688.75
         N          3.125            2.478     31.22    688.78
         N          3.128            2.478     31.22    688.76
         N          3.129            2.478     31.22    688.74
         N          3.128            2.478     31.22    688.75
         N          3.128            2.478     31.22    688.75
         N          3.128            2.478     31.22    688.75
         N          3.129            2.478     31.22    688.75
         N          3.125            2.478     31.22    688.78
         N          3.123            2.478     31.22    688.80
[...]
         N          3.125            2.478     31.22    688.78
         N          3.126            2.478     31.22    688.77
         N          3.126            2.478     31.22    688.78
         N          3.126            2.478     31.22    688.77
         N          3.126            2.478     31.22    688.77
         N          3.129            2.478     31.22    688.75
         N          3.129            2.478     31.22    688.75
         N          3.129            2.478     31.22    688.75
         N          3.129            2.478     31.22    688.74
         N          3.126            2.478     31.22    688.77
         N          3.127            2.478     31.22    688.77
         N          3.128            2.478     31.22    688.75
         N          3.129            2.478     31.22    688.74
         N          3.128            2.478     31.22    688.75
         N          3.129            2.478     31.22    688.74

         Molecular C6 ( Ry / a.u.^6 ) =    437753.49

     gamma-point specific algorithms are used

     Message from routine setup:
     DEPRECATED: symmetry with ibrav=0, use correct ibrav instead

     bravais-lattice index     =            0
     lattice parameter (alat)  =      33.2346  a.u.
     unit-cell volume          =   36236.0121 (a.u.)^3
     number of atoms/cell      =           98
     number of atomic types    =            5
     number of electrons       =       391.00
     number of Kohn-Sham states=          245
     kinetic-energy cutoff     =      40.0000  Ry
     charge density cutoff     =     160.0000  Ry
     convergence threshold     =      1.0E-10
     mixing beta               =       0.7000
     number of iterations used =            8  plain     mixing
     Exchange-correlation      = SLA PW PBX PBC ( 1  4  3  4 0 0)
     nstep                     =           50

     celldm(1)=  33.234611  celldm(2)=   0.000000  celldm(3)=   0.000000
     celldm(4)=   0.000000  celldm(5)=   0.000000  celldm(6)=   0.000000

     crystal axes: (cart. coord. in units of alat)
               a(1) = (   1.001038   0.000196   0.000000 )
               a(2) = (  -0.500349   0.867023   0.000000 )
               a(3) = (   0.000000   0.000000   1.137204 )

     reciprocal axes: (cart. coord. in units 2 pi/alat)
               b(1) = (  0.998850  0.576425  0.000000 )
               b(2) = ( -0.000226  1.153242  0.000000 )
               b(3) = (  0.000000  0.000000  0.879350 )

     PseudoPot. # 1 for B  read from file:
     ./pseudo/B.pbe-n-kjpaw_psl.1.0.0.UPF
     MD5 check sum: 8c825a5969375aca5c2c6ad5945b3059
     Pseudo is Projector augmented-wave + core cor, Zval =  3.0
     Generated using "atomic" code by A. Dal Corso v.6.3
     Shape of augmentation charge: PSQ
     Using radial grid of 1059 points,  4 beta functions with:
                l(1) =   0
                l(2) =   0
                l(3) =   1
                l(4) =   1
     Q(r) pseudized with 0 coefficients

     PseudoPot. # 2 for N  read from file:
     ./pseudo/N.pbe-n-kjpaw_psl.1.0.0.UPF
     MD5 check sum: 14c48229446f9f2d411169a3abcbc3fa
     Pseudo is Projector augmented-wave + core cor, Zval =  5.0
     Generated using "atomic" code by A. Dal Corso v.6.3
     Shape of augmentation charge: PSQ
     Using radial grid of 1085 points,  4 beta functions with:
                l(1) =   0
                l(2) =   0
                l(3) =   1
                l(4) =   1
     Q(r) pseudized with 0 coefficients

     PseudoPot. # 3 for C  read from file:
     ./pseudo/C.pbe-n-kjpaw_psl.1.0.0.UPF
     MD5 check sum: 5f16ad9a65e90284d1d834d4ab3b0f7d
     Pseudo is Projector augmented-wave + core cor, Zval =  4.0
     Generated using "atomic" code by A. Dal Corso v.6.3
     Shape of augmentation charge: PSQ
     Using radial grid of 1073 points,  4 beta functions with:
                l(1) =   0
                l(2) =   0
                l(3) =   1
                l(4) =   1
     Q(r) pseudized with 0 coefficients

[...]

     atomic species   valence    mass     pseudopotential
        B              3.00    10.00000     B ( 1.00)
        N              5.00    14.00000     N ( 1.00)
        C1             4.00    12.00000     C ( 1.00)
        C2             4.00    12.00000     C ( 1.00)
        C3             4.00    12.00000     C ( 1.00)

     Starting magnetic structure
     atomic species   magnetization
        B            0.000
        N            0.000
        C1           1.000
        C2           0.000
        C3           0.000

      2 Sym. Ops. (no inversion) found

   Cartesian axes

     site n.     atom                  positions (alat units)
         1           B   tau(   1) = (  -0.0000605   0.0820921   0.5686018  )
         2           B   tau(   2) = (  -0.0716004   0.2061596   0.5686018  )
         3           B   tau(   3) = (  -0.1432581   0.3302664   0.5686018  )
         4           B   tau(   4) = (  -0.2148087   0.4541304   0.5686018  )
         5           B   tau(   5) = (  -0.2858313   0.5780114   0.5686018  )
         6           B   tau(   6) = (  -0.3571077   0.7019762   0.5686018  )
         7           B   tau(   7) = (  -0.4287197   0.8256687   0.5686018  )
         8           B   tau(   8) = (   0.1428973   0.0817843   0.5686018  )
         9           B   tau(   9) = (   0.0710478   0.2050380   0.5686018  )
        10           B   tau(  10) = (  -0.0002773   0.3301522   0.5686018  )
[...]
        98           N   tau(  98) = (   0.5009660   0.7848854   0.5686018  )

     number of k points=     1
                       cart. coord. in units 2pi/alat
        k(    1) = (   0.0000000   0.0000000   0.0000000), wk =   1.0000000

     Occupations read from input

      Spin-up

[...]

      Spin-down

[...]

     Check: negative core charge=   -0.000006

     Initial potential from superposition of free atoms

     starting charge  390.98597, renormalised to  391.00000

     negative rho (up, down):  5.511E-02 9.862E-03
     Starting wfcs are  392 randomized atomic wfcs
     Checking if some PAW data can be deallocated...

     Self-consistent Calculation

[...]

     iteration # 11     ecut=    40.00 Ry     beta= 0.70
     CG style diagonalization
     c_bands:  1 eigenvalues not converged
     ethr =  4.87E-08,  avg # of iterations =  3.6

[...]

     total energy              =   -1940.17812017 Ry
     Harris-Foulkes estimate   =   -1940.17812017 Ry
     estimated scf accuracy    <          1.8E-12 Ry

[...]

     iteration # 24     ecut=    40.00 Ry     beta= 0.70
     CG style diagonalization
     ethr =  1.00E-13,  avg # of iterations =  3.1

[...]

     Magnetic moment per site:
     atom:    1    charge:    0.8511    magn:   -0.0001    constr:    0.0000
     atom:    2    charge:    0.8460    magn:   -0.0005    constr:    0.0000
     atom:    3    charge:    0.8471    magn:   -0.0004    constr:    0.0000
     atom:    4    charge:    0.8492    magn:    0.0002    constr:    0.0000
     atom:    5    charge:    0.8521    magn:   -0.0010    constr:    0.0000
     atom:    6    charge:    0.8505    magn:    0.0002    constr:    0.0000
     atom:    7    charge:    0.8515    magn:   -0.0009    constr:    0.0000
     atom:    8    charge:    0.8504    magn:   -0.0008    constr:    0.0000
     atom:    9    charge:    0.8513    magn:   -0.0011    constr:    0.0000
     atom:   10    charge:    0.8432    magn:   -0.0036    constr:    0.0000
     atom:   11    charge:    0.8471    magn:   -0.0002    constr:    0.0000
     atom:   12    charge:    0.8526    magn:   -0.0015    constr:    0.0000
     atom:   13    charge:    0.8520    magn:    0.0002    constr:    0.0000
     atom:   14    charge:    0.8505    magn:    0.0002    constr:    0.0000
     atom:   15    charge:    0.8504    magn:   -0.0006    constr:    0.0000
     atom:   16    charge:    0.8559    magn:   -0.0061    constr:    0.0000
     atom:   17    charge:    0.8623    magn:   -0.0131    constr:    0.0000
     atom:   18    charge:    0.8504    magn:   -0.0104    constr:    0.0000
     atom:   19    charge:    0.8599    magn:   -0.0101    constr:    0.0000
     atom:   20    charge:    0.8526    magn:   -0.0015    constr:    0.0000
     atom:   21    charge:    0.8521    magn:   -0.0010    constr:    0.0000
     atom:   22    charge:    0.8469    magn:    0.0000    constr:    0.0000
     atom:   23    charge:    0.8436    magn:   -0.0005    constr:    0.0000
     atom:   24    charge:    0.8401    magn:   -0.0091    constr:    0.0000
     atom:   25    charge:    1.5850    magn:   -0.1486    constr:    0.0000
     atom:   26    charge:    0.8504    magn:   -0.0104    constr:    0.0000
     atom:   27    charge:    0.8471    magn:   -0.0002    constr:    0.0000
     atom:   28    charge:    0.8492    magn:    0.0002    constr:    0.0000
     atom:   29    charge:    0.8471    magn:   -0.0008    constr:    0.0000
     atom:   30    charge:    0.8473    magn:   -0.0000    constr:    0.0000
     atom:   31    charge:    0.8463    magn:   -0.0025    constr:    0.0000
     atom:   32    charge:    0.8401    magn:   -0.0091    constr:    0.0000
     atom:   33    charge:    0.8623    magn:   -0.0131    constr:    0.0000
     atom:   34    charge:    0.8432    magn:   -0.0036    constr:    0.0000
     atom:   35    charge:    0.8471    magn:   -0.0004    constr:    0.0000
     atom:   36    charge:    0.8461    magn:    0.0004    constr:    0.0000
     atom:   37    charge:    0.8456    magn:    0.0004    constr:    0.0000
     atom:   38    charge:    0.8473    magn:   -0.0000    constr:    0.0000
     atom:   39    charge:    0.8436    magn:   -0.0005    constr:    0.0000
     atom:   40    charge:    0.8559    magn:   -0.0061    constr:    0.0000
     atom:   41    charge:    0.8513    magn:   -0.0011    constr:    0.0000
     atom:   42    charge:    0.8460    magn:   -0.0005    constr:    0.0000
     atom:   43    charge:    0.8461    magn:   -0.0011    constr:    0.0000
     atom:   44    charge:    0.8461    magn:    0.0004    constr:    0.0000
     atom:   45    charge:    0.8471    magn:   -0.0008    constr:    0.0000
     atom:   46    charge:    0.8469    magn:    0.0000    constr:    0.0000
     atom:   47    charge:    0.8504    magn:   -0.0006    constr:    0.0000
     atom:   48    charge:    0.8504    magn:   -0.0008    constr:    0.0000
     atom:   49    charge:    0.8511    magn:   -0.0001    constr:    0.0000
     atom:   50    charge:    2.6493    magn:    0.0013    constr:    0.0000
     atom:   51    charge:    2.6499    magn:    0.0005    constr:    0.0000
     atom:   52    charge:    2.6373    magn:    0.0084    constr:    0.0000
     atom:   53    charge:    2.6486    magn:    0.0028    constr:    0.0000
     atom:   54    charge:    2.6504    magn:    0.0007    constr:    0.0000
     atom:   55    charge:    2.6407    magn:   -0.0001    constr:    0.0000
     atom:   56    charge:    2.6438    magn:   -0.0003    constr:    0.0000
     atom:   57    charge:    2.6460    magn:   -0.0018    constr:    0.0000
     atom:   58    charge:    2.6460    magn:    0.0060    constr:    0.0000
     atom:   59    charge:    2.6369    magn:    0.0305    constr:    0.0000
     atom:   60    charge:    2.6383    magn:    0.0147    constr:    0.0000
[...]
     atom:   84    charge:    2.6373    magn:    0.0084    constr:    0.0000
     atom:   85    charge:    2.6459    magn:    0.0012    constr:    0.0000
     atom:   86    charge:    2.6446    magn:   -0.0001    constr:    0.0000
     atom:   87    charge:    2.6431    magn:    0.0005    constr:    0.0000
     atom:   88    charge:    2.6439    magn:    0.0003    constr:    0.0000
     atom:   89    charge:    2.6480    magn:    0.0038    constr:    0.0000
     atom:   90    charge:    2.6460    magn:    0.0060    constr:    0.0000
     atom:   91    charge:    2.6499    magn:    0.0005    constr:    0.0000
     atom:   92    charge:    2.6498    magn:    0.0003    constr:    0.0000
     atom:   93    charge:    2.6459    magn:    0.0012    constr:    0.0000
     atom:   94    charge:    2.6468    magn:    0.0006    constr:    0.0000
     atom:   95    charge:    2.6490    magn:    0.0003    constr:    0.0000
     atom:   96    charge:    2.6487    magn:    0.0009    constr:    0.0000
     atom:   97    charge:    2.6460    magn:   -0.0018    constr:    0.0000
     atom:   98    charge:    2.6493    magn:    0.0013    constr:    0.0000

     End of self-consistent calculation

 ------ SPIN UP ------------

[...]

 ------ SPIN DOWN ----------

          k = 0.0000 0.0000 0.0000 ( 77471 PWs)   bands (ev):

   -21.8472 -21.6307 -21.3901 -21.3804 -21.3540 -21.2880 -21.2631 -20.8714
   -20.6541 -20.6323 -20.6142 -20.5377 -20.5294 -20.4163 -20.2833 -20.2779
   -20.2493 -20.1070 -20.1004 -19.5773 -19.4155 -19.3980 -19.3858 -19.3812
   -19.3714 -19.3609 -19.3477 -19.3012 -19.2969 -19.1531 -19.1479 -19.0271
   -18.9597 -18.9580 -18.9152 -18.7604 -18.7479 -18.5422 -18.5317 -18.5105
   -18.5064 -18.4578 -18.4000 -18.3848 -18.3477 -18.3307 -18.3097 -16.6309
   -14.6799 -13.1761 -12.7763 -12.7744 -12.7416 -12.7120 -12.7072 -12.6426
   -12.5576 -12.5201 -12.5119 -12.4734 -12.4052 -12.1485 -12.0601 -12.0485
   -12.0148 -11.9825 -11.9330 -11.5642 -11.4219 -11.4109 -11.3905 -11.3839
   -11.3601 -11.3550 -11.3492 -11.3035 -11.2898 -11.0590 -11.0266 -10.8754
   -10.7166 -10.7017 -10.6695 -10.6441 -10.4957 -10.0750 -10.0275 -10.0016
    -9.9240  -9.8623  -9.8013  -9.4065  -9.3193  -9.3136  -9.3054  -9.2851
    -9.2718  -9.2142  -9.0661  -8.9508  -8.9092  -8.9059  -8.9046  -8.8916
    -8.8911  -8.8822  -8.8791  -8.8546  -8.8238  -8.8170  -8.8153  -8.8094
    -8.7924  -8.7882  -8.7863  -8.7255  -8.7140  -8.6431  -8.6355  -8.6312
    -8.4558  -8.4214  -8.2121  -8.1847  -8.1823  -8.0860  -8.0759  -7.9263
    -7.8565  -7.8211  -7.8012  -7.7856  -7.7030  -7.6867  -7.5730  -7.5099
    -7.4996  -7.4693  -7.4441  -7.4379  -7.4261  -7.3891  -7.3865  -7.3320
    -7.3273  -7.3205  -7.2915  -7.2688  -7.2170  -7.1678  -7.1641  -7.0331
    -7.0169  -6.9915  -6.8818  -6.7953  -6.6294  -6.5244  -6.2481  -6.1958
    -6.1760  -6.1434  -6.0813  -6.0657  -6.0556  -6.0500  -6.0448  -6.0418
    -6.0246  -6.0118  -5.9678  -5.9638  -5.8076  -5.8044  -5.7675  -5.6886
    -5.5181  -5.4379  -5.4255  -5.3994  -5.2547  -5.2021  -5.0810  -5.0246
    -4.7760  -4.7688  -4.7480  -4.7339  -4.6537  -4.6283  -4.5530  -4.4964
    -4.4822  -4.4720  -4.0627  -2.8338  -0.0010   0.1771   0.6706   0.6781
     0.7066   0.7249   0.7324   0.7390   0.7842   0.7929   0.8054   0.8091
     0.8156   0.8338   0.8433   0.8513   0.8783   0.9020   0.9165   0.9500
     0.9662   1.1333   1.2258   1.2298   1.2536   1.2717   1.3147   1.3227
     1.3284   1.3337   1.3420   1.3634   1.3865   1.4350   1.4387   1.4421
     1.4512   1.4593   1.4812   1.8830   2.0904   2.0954   2.0956   2.1090
     2.1095   2.1266   2.1367   2.2103   2.2689

     highest occupied, lowest unoccupied level (ev):    -3.6470   -4.0627

!    total energy              =   -1940.17812017 Ry
     Harris-Foulkes estimate   =   -1940.17812017 Ry
     estimated scf accuracy    <          2.4E-13 Ry

     total all-electron energy =     -7770.002597 Ry

     The total energy is the sum of the following terms:

     one-electron contribution =  -10643.84653233 Ry
     hartree contribution      =    5407.51333684 Ry
     xc contribution           =    -430.67857969 Ry
     ewald contribution        =    4370.28097308 Ry
     DFT-D3 Dispersion         =      -0.27012905 Ry
     one-center paw contrib.   =    -643.17718903 Ry

     total magnetization       =     1.00 Bohr mag/cell
     absolute magnetization    =     2.39 Bohr mag/cell

     convergence has been achieved in  24 iterations

     negative rho (up, down):  4.795E-01 7.824E-03

     Forces acting on atoms (cartesian axes, Ry/au):

     atom    1 type  1   force =     0.00001294   -0.00000946    0.00000000
     atom    2 type  1   force =    -0.00000252   -0.00000989    0.00000000
     atom    3 type  1   force =    -0.00001106   -0.00000142    0.00000000
     atom    4 type  1   force =    -0.00000330   -0.00000085    0.00000000
     atom    5 type  1   force =     0.00000956   -0.00000473    0.00000000
     atom    6 type  1   force =     0.00001198    0.00000350    0.00000000
     atom    7 type  1   force =     0.00000467   -0.00000050    0.00000000
     atom    8 type  1   force =    -0.00000932   -0.00000963    0.00000000
     atom    9 type  1   force =    -0.00000590   -0.00000974    0.00000000
     atom   10 type  1   force =    -0.00001400   -0.00000983    0.00000000
     atom   11 type  1   force =    -0.00001204   -0.00001065    0.00000000
     atom   12 type  1   force =     0.00000496   -0.00001020    0.00000000
     atom   13 type  1   force =     0.00000703   -0.00001346    0.00000000
     atom   14 type  1   force =    -0.00000517   -0.00001690    0.00000000
     atom   15 type  1   force =    -0.00001253    0.00000006    0.00000000
     atom   16 type  1   force =    -0.00001417    0.00000231    0.00000000
     atom   17 type  1   force =    -0.00001138   -0.00000327    0.00000000
     atom   18 type  1   force =    -0.00000942    0.00000003    0.00000000
     atom   19 type  1   force =    -0.00000072   -0.00000133    0.00000000
     atom   20 type  1   force =     0.00001176   -0.00001263    0.00000000
     atom   21 type  1   force =     0.00000638   -0.00001424    0.00000000
     atom   22 type  1   force =     0.00000631   -0.00000479    0.00000000
     atom   23 type  1   force =     0.00000232    0.00001070    0.00000000
     atom   24 type  1   force =    -0.00000902    0.00001051    0.00000000
     atom   25 type  4   force =    -0.00000527    0.00000314    0.00000000
     atom   26 type  1   force =    -0.00000460    0.00000866    0.00000000
     atom   27 type  1   force =     0.00000497    0.00000892    0.00000000
     atom   28 type  1   force =     0.00000626   -0.00000269    0.00000000
     atom   29 type  1   force =     0.00000247    0.00000779    0.00000000
     atom   30 type  1   force =     0.00001281    0.00000158    0.00000000
     atom   31 type  1   force =    -0.00000160    0.00000320    0.00000000
     atom   32 type  1   force =    -0.00001044    0.00000131    0.00000000
     atom   33 type  1   force =    -0.00000382    0.00000674    0.00000000
     atom   34 type  1   force =    -0.00000221    0.00001188    0.00000000
     atom   35 type  1   force =    -0.00000388    0.00000977    0.00000000
     atom   36 type  1   force =    -0.00000918    0.00001257    0.00000000
     atom   37 type  1   force =     0.00000194    0.00000380    0.00000000
     atom   38 type  1   force =     0.00000910   -0.00000268    0.00000000
     atom   39 type  1   force =    -0.00000129   -0.00000567    0.00000000
     atom   40 type  1   force =    -0.00000137    0.00000461    0.00000000
     atom   41 type  1   force =     0.00000617    0.00000229    0.00000000
     atom   42 type  1   force =     0.00000462    0.00000924    0.00000000
     atom   43 type  1   force =     0.00000810    0.00000045    0.00000000
     atom   44 type  1   force =    -0.00001092    0.00000585    0.00000000
     atom   45 type  1   force =    -0.00000434    0.00000303    0.00000000
     atom   46 type  1   force =     0.00000870    0.00000306    0.00000000
     atom   47 type  1   force =     0.00000236    0.00000603    0.00000000
     atom   48 type  1   force =     0.00001256    0.00000672    0.00000000
     atom   49 type  1   force =     0.00002124    0.00000028    0.00000000
     atom   50 type  2   force =     0.00001807   -0.00000783    0.00000000
     atom   51 type  2   force =     0.00000503   -0.00000466    0.00000000
     atom   52 type  2   force =    -0.00000997   -0.00000583    0.00000000
     atom   53 type  2   force =    -0.00000350   -0.00000623    0.00000000
     atom   54 type  2   force =     0.00000704    0.00000310    0.00000000
     atom   55 type  2   force =     0.00000235    0.00000720    0.00000000
     atom   56 type  2   force =     0.00000750    0.00000053    0.00000000
     atom   57 type  2   force =     0.00001034   -0.00000767    0.00000000
     atom   58 type  2   force =     0.00000698   -0.00001125    0.00000000
     atom   59 type  2   force =    -0.00000307   -0.00000236    0.00000000
     atom   60 type  2   force =    -0.00000004   -0.00000081    0.00000000
[...]
     atom   84 type  2   force =     0.00000242    0.00001368    0.00000000
     atom   85 type  2   force =    -0.00000322    0.00000368    0.00000000
     atom   86 type  2   force =    -0.00000890    0.00000177    0.00000000
     atom   87 type  2   force =    -0.00000169   -0.00000806    0.00000000
     atom   88 type  2   force =     0.00000349    0.00000391    0.00000000
     atom   89 type  2   force =    -0.00000215    0.00000801    0.00000000
     atom   90 type  2   force =     0.00000680    0.00000666    0.00000000
     atom   91 type  2   force =     0.00000400   -0.00000069    0.00000000
     atom   92 type  2   force =     0.00001006   -0.00001172    0.00000000
     atom   93 type  2   force =    -0.00000974   -0.00000381    0.00000000
     atom   94 type  2   force =    -0.00000903   -0.00000583    0.00000000
     atom   95 type  2   force =     0.00000021   -0.00000583    0.00000000
     atom   96 type  2   force =    -0.00000230    0.00000925    0.00000000
     atom   97 type  2   force =     0.00000634    0.00000359    0.00000000
     atom   98 type  2   force =     0.00000967   -0.00001036    0.00000000

     Total force =     0.000104     Total SCF correction =     0.000001

     Computing stress (Cartesian axis) and pressure

     negative rho (up, down):  4.795E-01 7.824E-03
          total   stress  (Ry/bohr**3)                   (kbar)     P=   -0.17
  -0.00000003  -0.00000001   0.00000000         -0.00     -0.00      0.00
  -0.00000001  -0.00000004   0.00000000         -0.00     -0.01      0.00
   0.00000000   0.00000000  -0.00000334          0.00      0.00     -0.49

     Writing output data file C2Cn.save/

     General routines

     Parallel routines

   This run was terminated on:   3: 3:19   9Jun2021

   JOB DONE.