     Program PWSCF v.6.4.1 starts on  5Jun2021 at 19: 6:11

     R & G space division:  proc/nbgrp/npool/nimage =      16
     Waiting for input...
     Reading input from standard input

     Current dimensions of program PWSCF are:
     Max number of different atomic species (ntypx) = 10
     Max number of k-points (npk) =  40000
     Max angular momentum in pseudopotentials (lmaxx) =  3
               file N.pbe-n-kjpaw_psl.1.0.0.UPF: wavefunction(s)  2S renormalized

     Parameters for DFT-D3 Dispersion Correction:
       Reference C6 values for interpolation:

         atom   Coordination number   C6
         B          0.000           214.36
         B          0.971           150.74
         B          1.944           106.23
         B          2.913            62.89
         B          4.586            56.06
         N          0.000            50.54
         N          0.994            44.25
         N          2.014            39.35
         N          2.990            31.16

       Values used:

         atom   Coordination number  R0_AB[au]  C6      C8
         B          3.323            3.039     62.90   2506.31
         B          3.323            3.039     62.90   2506.30
         B          3.323            3.039     62.90   2506.30
         B          3.323            3.039     62.90   2506.31
         B          3.323            3.039     62.90   2506.30
         B          3.323            3.039     62.90   2506.30
         B          3.323            3.039     62.90   2506.31
         B          3.323            3.039     62.90   2506.30
         B          3.323            3.039     62.90   2506.30
         B          3.323            3.039     62.90   2506.30
         B          3.323            3.039     62.90   2506.30
         B          3.323            3.039     62.90   2506.30
         B          3.323            3.039     62.90   2506.30
         B          3.323            3.039     62.90   2506.30
         B          3.323            3.039     62.90   2506.30
         B          3.323            3.039     62.90   2506.30
         B          3.323            3.039     62.90   2506.30
         B          3.323            3.039     62.90   2506.30
         B          3.323            3.039     62.90   2506.30
         B          3.323            3.039     62.90   2506.30
         B          3.323            3.039     62.90   2506.30
         B          3.323            3.039     62.90   2506.30
         B          3.323            3.039     62.90   2506.30
         B          3.323            3.039     62.90   2506.30
         B          3.323            3.039     62.90   2506.31
         B          3.323            3.039     62.90   2506.30
         B          3.323            3.039     62.90   2506.30
         B          3.323            3.039     62.90   2506.31
         B          3.323            3.039     62.90   2506.30
         B          3.323            3.039     62.90   2506.30
         B          3.323            3.039     62.90   2506.30
         B          3.323            3.039     62.90   2506.30
         B          3.323            3.039     62.90   2506.30
         B          3.323            3.039     62.90   2506.30
         B          3.323            3.039     62.90   2506.30
         B          3.323            3.039     62.90   2506.30
         B          3.323            3.039     62.90   2506.30
         B          3.323            3.039     62.90   2506.30
         B          3.323            3.039     62.90   2506.30
         B          3.323            3.039     62.90   2506.30
         B          3.323            3.039     62.90   2506.30
         B          3.323            3.039     62.90   2506.30
         B          3.323            3.039     62.90   2506.30
         B          3.323            3.039     62.90   2506.30
         B          3.323            3.039     62.90   2506.30
         B          3.323            3.039     62.90   2506.30
         B          3.323            3.039     62.90   2506.30
         B          3.323            3.039     62.90   2506.30
         B          3.323            3.039     62.90   2506.31
         N          3.129            2.478     31.22    688.75
         N          3.129            2.478     31.22    688.75
         N          3.129            2.478     31.22    688.75
         N          3.129            2.478     31.22    688.75
         N          3.129            2.478     31.22    688.75
         N          3.129            2.478     31.22    688.75
         N          3.129            2.478     31.22    688.75
         N          3.129            2.478     31.22    688.75
         N          3.129            2.478     31.22    688.75
         N          3.129            2.478     31.22    688.75
         N          3.129            2.478     31.22    688.75
[...]
         N          3.129            2.478     31.22    688.75
         N          3.129            2.478     31.22    688.75
         N          3.129            2.478     31.22    688.75
         N          3.129            2.478     31.22    688.75
         N          3.129            2.478     31.22    688.75
         N          3.129            2.478     31.22    688.75
         N          3.129            2.478     31.22    688.75
         N          3.129            2.478     31.22    688.75
         N          3.129            2.478     31.22    688.75
         N          3.129            2.478     31.22    688.75
         N          3.129            2.478     31.22    688.75
         N          3.129            2.478     31.22    688.75
         N          3.129            2.478     31.22    688.75
         N          3.129            2.478     31.22    688.75
         N          3.129            2.478     31.22    688.75

         Molecular C6 ( Ry / a.u.^6 ) =    434808.21

     gamma-point specific algorithms are used

     Found symmetry operation: I + ( -0.0000 -0.4286  0.0000)
     This is a supercell, fractional translations are disabled
     Message from routine setup:
     DEPRECATED: symmetry with ibrav=0, use correct ibrav instead

     bravais-lattice index     =            0
     lattice parameter (alat)  =      33.2346  a.u.
     unit-cell volume          =   36104.9856 (a.u.)^3
     number of atoms/cell      =           98
     number of atomic types    =            2
     number of electrons       =       392.00
     number of Kohn-Sham states=          196
     kinetic-energy cutoff     =      40.0000  Ry
     charge density cutoff     =     500.0000  Ry
     convergence threshold     =      1.0E-06
     mixing beta               =       0.7000
     number of iterations used =            8  plain     mixing
     Exchange-correlation      = SLA PW PBX PBC ( 1  4  3  4 0 0)
     nstep                     =           50

     celldm(1)=  33.234611  celldm(2)=   0.000000  celldm(3)=   0.000000
     celldm(4)=   0.000000  celldm(5)=   0.000000  celldm(6)=   0.000000

     crystal axes: (cart. coord. in units of alat)
               a(1) = (   0.999340   0.000000   0.000000 )
               a(2) = (  -0.499670   0.865454   0.000000 )
               a(3) = (   0.000000   0.000000   1.137204 )

     reciprocal axes: (cart. coord. in units 2 pi/alat)
               b(1) = (  1.000660  0.577732  0.000000 )
               b(2) = (  0.000000  1.155463  0.000000 )
               b(3) = (  0.000000  0.000000  0.879350 )

     PseudoPot. # 1 for B  read from file:
     ./pseudo/B.pbe-n-kjpaw_psl.1.0.0.UPF
     MD5 check sum: 8c825a5969375aca5c2c6ad5945b3059
     Pseudo is Projector augmented-wave + core cor, Zval =  3.0
     Generated using "atomic" code by A. Dal Corso v.6.3
     Shape of augmentation charge: PSQ
     Using radial grid of 1059 points,  4 beta functions with:
                l(1) =   0
                l(2) =   0
                l(3) =   1
                l(4) =   1
     Q(r) pseudized with 0 coefficients

     PseudoPot. # 2 for N  read from file:
     ./pseudo/N.pbe-n-kjpaw_psl.1.0.0.UPF
     MD5 check sum: 14c48229446f9f2d411169a3abcbc3fa
     Pseudo is Projector augmented-wave + core cor, Zval =  5.0
     Generated using "atomic" code by A. Dal Corso v.6.3
     Shape of augmentation charge: PSQ
     Using radial grid of 1085 points,  4 beta functions with:
                l(1) =   0
                l(2) =   0
                l(3) =   1
                l(4) =   1
     Q(r) pseudized with 0 coefficients

     atomic species   valence    mass     pseudopotential
        B              3.00    10.00000     B ( 1.00)
        N              5.00    14.00000     N ( 1.00)

     12 Sym. Ops. (no inversion) found

   Cartesian axes

     site n.     atom                  positions (alat units)
         1           B   tau(   1) = (   0.0000000   0.0824321   0.5686018  )
         2           B   tau(   2) = (  -0.0713835   0.2060635   0.5686018  )
         3           B   tau(   3) = (  -0.1427572   0.3296900   0.5686018  )
         4           B   tau(   4) = (  -0.2141406   0.4533357   0.5686018  )
         5           B   tau(   5) = (  -0.2855287   0.5769774   0.5686018  )
         6           B   tau(   6) = (  -0.3569055   0.7006021   0.5686018  )
         7           B   tau(   7) = (  -0.4282817   0.8242377   0.5686018  )
         8           B   tau(   8) = (   0.1427717   0.0824293   0.5686018  )
         9           B   tau(   9) = (   0.0713835   0.2060635   0.5686018  )
        10           B   tau(  10) = (  -0.0000000   0.3296956   0.5686018  )
        11           B   tau(  11) = (  -0.0713743   0.4533359   0.5686018  )
        12           B   tau(  12) = (  -0.1427572   0.5769748   0.5686018  )
        13           B   tau(  13) = (  -0.2141452   0.7006060   0.5686018  )
        14           B   tau(  14) = (  -0.2855220   0.8242420   0.5686018  )
        15           B   tau(  15) = (   0.2855217   0.0824278   0.5686018  )
        16           B   tau(  16) = (   0.2141454   0.2060552   0.5686018  )
        17           B   tau(  17) = (   0.1427572   0.3296900   0.5686018  )
        18           B   tau(  18) = (   0.0713733   0.4533359   0.5686018  )
        19           B   tau(  19) = (  -0.0000005   0.5769695   0.5686018  )
        20           B   tau(  20) = (  -0.0713834   0.7005978   0.5686018  )
        21           B   tau(  21) = (  -0.1427715   0.8242402   0.5686018  )
        22           B   tau(  22) = (   0.4282814   0.0824314   0.5686018  )
        23           B   tau(  23) = (   0.3569046   0.2060590   0.5686018  )
        24           B   tau(  24) = (   0.2855284   0.3296869   0.5686018  )
        25           B   tau(  25) = (   0.2141396   0.4533357   0.5686018  )
        26           B   tau(  26) = (   0.1427562   0.5769748   0.5686018  )
        27           B   tau(  27) = (   0.0713824   0.7005978   0.5686018  )
        28           B   tau(  28) = (  -0.0000005   0.8242371   0.5686018  )
        29           B   tau(  29) = (   0.5710586   0.0824314   0.5686018  )
        30           B   tau(  30) = (   0.4996705   0.2060654   0.5686018  )
        31           B   tau(  31) = (   0.4282936   0.3296938   0.5686018  )
[...]
                l(1) =   0
                l(2) =   0
                l(3) =   1
                l(4) =   1
     Q(r) pseudized with 0 coefficients

     PseudoPot. # 2 for N  read from file:
     ./pseudo/N.pbe-n-kjpaw_psl.1.0.0.UPF
     MD5 check sum: 14c48229446f9f2d411169a3abcbc3fa
     Pseudo is Projector augmented-wave + core cor, Zval =  5.0
     Generated using "atomic" code by A. Dal Corso v.6.3
     Shape of augmentation charge: PSQ
     Using radial grid of 1085 points,  4 beta functions with:
                l(1) =   0
                l(2) =   0
                l(3) =   1
                l(4) =   1
     Q(r) pseudized with 0 coefficients

     atomic species   valence    mass     pseudopotential
        B              3.00    10.00000     B ( 1.00)
        N              5.00    14.00000     N ( 1.00)

     12 Sym. Ops. (no inversion) found

   Cartesian axes

     site n.     atom                  positions (alat units)
         1           B   tau(   1) = (   0.0000000   0.0824309   0.5686018  )
         2           B   tau(   2) = (  -0.0713829   0.2060622   0.5686018  )
         3           B   tau(   3) = (  -0.1427568   0.3296890   0.5686018  )
         4           B   tau(   4) = (  -0.2141395   0.4533331   0.5686018  )
         5           B   tau(   5) = (  -0.2855266   0.5769736   0.5686018  )
         6           B   tau(   6) = (  -0.3569036   0.7005986   0.5686018  )
         7           B   tau(   7) = (  -0.4282799   0.8242336   0.5686018  )
         8           B   tau(   8) = (   0.1427700   0.0824283   0.5686018  )
         9           B   tau(   9) = (   0.0713829   0.2060622   0.5686018  )
        10           B   tau(  10) = (  -0.0000000   0.3296942   0.5686018  )
        11           B   tau(  11) = (  -0.0713745   0.4533335   0.5686018  )
        12           B   tau(  12) = (  -0.1427567   0.5769711   0.5686018  )
        13           B   tau(  13) = (  -0.2141437   0.7006019   0.5686018  )
        14           B   tau(  14) = (  -0.2855207   0.8242373   0.5686018  )
        15           B   tau(  15) = (   0.2855205   0.0824268   0.5686018  )
        16           B   tau(  16) = (   0.2141440   0.2060546   0.5686018  )
        17           B   tau(  17) = (   0.1427568   0.3296890   0.5686018  )
        18           B   tau(  18) = (   0.0713735   0.4533335   0.5686018  )
        19           B   tau(  19) = (  -0.0000005   0.5769663   0.5686018  )
        20           B   tau(  20) = (  -0.0713827   0.7005944   0.5686018  )
        21           B   tau(  21) = (  -0.1427698   0.8242355   0.5686018  )
        22           B   tau(  22) = (   0.4282797   0.0824299   0.5686018  )
        23           B   tau(  23) = (   0.3569027   0.2060579   0.5686018  )
        24           B   tau(  24) = (   0.2855263   0.3296861   0.5686018  )
        25           B   tau(  25) = (   0.2141385   0.4533331   0.5686018  )
        26           B   tau(  26) = (   0.1427557   0.5769711   0.5686018  )
        27           B   tau(  27) = (   0.0713817   0.7005944   0.5686018  )
        28           B   tau(  28) = (  -0.0000005   0.8242327   0.5686018  )
        29           B   tau(  29) = (   0.5710548   0.0824299   0.5686018  )
        30           B   tau(  30) = (   0.4996677   0.2060636   0.5686018  )
        31           B   tau(  31) = (   0.4282907   0.3296923   0.5686018  )
        32           B   tau(  32) = (   0.3569138   0.4533330   0.5686018  )
        33           B   tau(  33) = (   0.2855266   0.5769736   0.5686018  )
        34           B   tau(  34) = (   0.2141437   0.7006019   0.5686018  )
        35           B   tau(  35) = (   0.1427698   0.8242355   0.5686018  )
        36           B   tau(  36) = (   0.7138140   0.0824268   0.5686018  )
        37           B   tau(  37) = (   0.6424318   0.2060579   0.5686018  )
        38           B   tau(  38) = (   0.5710448   0.3296923   0.5686018  )
        39           B   tau(  39) = (   0.4996672   0.4533333   0.5686018  )
        40           B   tau(  40) = (   0.4282907   0.5769676   0.5686018  )
        41           B   tau(  41) = (   0.3569036   0.7005986   0.5686018  )
        42           B   tau(  42) = (   0.2855207   0.8242373   0.5686018  )
        43           B   tau(  43) = (   0.8565645   0.0824283   0.5686018  )
        44           B   tau(  44) = (   0.7851905   0.2060546   0.5686018  )
        45           B   tau(  45) = (   0.7138082   0.3296861   0.5686018  )
        46           B   tau(  46) = (   0.6424207   0.4533330   0.5686018  )
        47           B   tau(  47) = (   0.5710438   0.5769676   0.5686018  )
        48           B   tau(  48) = (   0.4996672   0.7005925   0.5686018  )
        49           B   tau(  49) = (   0.4282799   0.8242336   0.5686018  )
        50           N   tau(  50) = (   0.0713853   0.0412143   0.5686018  )
        51           N   tau(  51) = (   0.0000000   0.1648537   0.5686018  )
        52           N   tau(  52) = (  -0.0713781   0.2884819   0.5686018  )
        53           N   tau(  53) = (  -0.1427563   0.4121169   0.5686018  )
        54           N   tau(  54) = (  -0.2141417   0.5357601   0.5686018  )
        55           N   tau(  55) = (  -0.2855237   0.6593929   0.5686018  )
        56           N   tau(  56) = (  -0.3568998   0.7830222   0.5686018  )
        57           N   tau(  57) = (   0.2141455   0.0412121   0.5686018  )
        58           N   tau(  58) = (   0.1427635   0.1648494   0.5686018  )
        59           N   tau(  59) = (   0.0713781   0.2884819   0.5686018  )
        60           N   tau(  60) = (   0.0000000   0.4121169   0.5686018  )
[...]
        84           N   tau(  84) = (   0.2141456   0.7830234   0.5686018  )
        85           N   tau(  85) = (   0.7851890   0.0412121   0.5686018  )
        86           N   tau(  86) = (   0.7138108   0.1648472   0.5686018  )
        87           N   tau(  87) = (   0.6424259   0.2884793   0.5686018  )
        88           N   tau(  88) = (   0.5710439   0.4121166   0.5686018  )
        89           N   tau(  89) = (   0.4996672   0.5357547   0.5686018  )
        90           N   tau(  90) = (   0.4282852   0.6593876   0.5686018  )
        91           N   tau(  91) = (   0.3568998   0.7830222   0.5686018  )
        92           N   tau(  92) = (   0.9279491   0.0412143   0.5686018  )
        93           N   tau(  93) = (   0.8565710   0.1648494   0.5686018  )
        94           N   tau(  94) = (   0.7851929   0.2884777   0.5686018  )
        95           N   tau(  95) = (   0.7138080   0.4121166   0.5686018  )
        96           N   tau(  96) = (   0.6424255   0.5357581   0.5686018  )
        97           N   tau(  97) = (   0.5710493   0.6593876   0.5686018  )
        98           N   tau(  98) = (   0.4996672   0.7830203   0.5686018  )

     number of k points=     1
                       cart. coord. in units 2pi/alat
        k(    1) = (   0.0000000   0.0000000   0.0000000), wk =   2.0000000

     Initial potential from superposition of free atoms

     starting charge  391.98580, renormalised to  392.00000

     negative rho (up, down):  4.265E-03 0.000E+00
     Starting wfcs are  392 randomized atomic wfcs
     Checking if some PAW data can be deallocated...

     Self-consistent Calculation

[...]

     total energy              =   -1953.56485402 Ry
     Harris-Foulkes estimate   =   -1953.56485403 Ry
     estimated scf accuracy    <       0.00000002 Ry

     iteration # 12     ecut=    40.00 Ry     beta= 0.70
     CG style diagonalization
     ethr =  5.50E-12,  avg # of iterations =  4.1

[...]

     End of self-consistent calculation

          k = 0.0000 0.0000 0.0000 ( 77079 PWs)   bands (ev):

   -21.7008 -21.3143 -21.3143 -21.3143 -21.3135 -21.3135 -21.3134 -20.5748
   -20.5748 -20.5748 -20.5748 -20.5748 -20.5748 -20.2326 -20.2322 -20.2322
   -20.2314 -20.2313 -20.2309 -19.3074 -19.3074 -19.3074 -19.3074 -19.3074
   -19.3074 -19.3070 -19.3069 -19.3069 -19.3069 -19.3069 -19.3069 -18.9113
   -18.9113 -18.9113 -18.9112 -18.9112 -18.9112 -18.4558 -18.4558 -18.4557
   -18.4557 -18.4547 -18.4546 -18.2915 -18.2915 -18.2915 -18.2915 -18.2915
   -18.2914 -12.6989 -12.6989 -12.6983 -12.6983 -12.6980 -12.6980 -12.4956
   -12.4956 -12.4955 -12.4955 -12.4955 -12.4955 -12.0077 -12.0077 -12.0077
   -12.0077 -12.0077 -12.0077 -11.3103 -11.3103 -11.3103 -11.3103 -11.3102
   -11.3102 -11.3098 -11.3098 -11.3097 -11.3097 -11.3097 -11.3097 -10.6483
   -10.6483 -10.6483 -10.6483 -10.6482 -10.6482  -9.9387  -9.9385  -9.9385
    -9.9380  -9.9380  -9.9378  -9.2821  -9.2359  -9.2359  -9.2356  -9.2356
    -9.2351  -9.2351  -8.8127  -8.8127  -8.8127  -8.8127  -8.8127  -8.8127
    -8.7682  -8.7682  -8.7682  -8.7682  -8.7682  -8.7682  -8.7672  -8.7672
    -8.7671  -8.7671  -8.7671  -8.7671  -8.7611  -8.7611  -8.7611  -8.7604
    -8.7603  -8.7603  -8.0941  -8.0941  -8.0940  -8.0940  -8.0940  -8.0940
    -7.7567  -7.7567  -7.7567  -7.7567  -7.7567  -7.7567  -7.4161  -7.4160
    -7.4160  -7.4160  -7.4160  -7.4160  -7.3101  -7.3100  -7.3100  -7.3098
    -7.3098  -7.3097  -7.2850  -7.2846  -7.2846  -7.2839  -7.2839  -7.2835
    -6.9169  -6.9169  -6.9169  -6.9166  -6.9166  -6.9166  -6.0944  -6.0944
    -6.0944  -6.0936  -6.0935  -6.0935  -5.9844  -5.9844  -5.9844  -5.9844
    -5.9844  -5.9844  -5.9841  -5.9841  -5.9841  -5.9841  -5.9841  -5.9841
    -5.4108  -5.4107  -5.3912  -5.3912  -5.3912  -5.3912  -5.3912  -5.3912
    -4.6938  -4.6938  -4.6936  -4.6936  -4.6930  -4.6930  -4.4491  -4.4491
    -4.4491  -4.4491  -4.4490  -4.4490

     highest occupied level (ev):    -4.4490

!    total energy              =   -1953.56485402 Ry
     Harris-Foulkes estimate   =   -1953.56485402 Ry
     estimated scf accuracy    <          5.6E-10 Ry

     total all-electron energy =     -7810.933983 Ry

     The total energy is the sum of the following terms:

     one-electron contribution =  -10743.30787713 Ry
     hartree contribution      =    5458.41518051 Ry
     xc contribution           =    -431.71508861 Ry
     ewald contribution        =    4409.14371032 Ry
     DFT-D3 Dispersion         =      -0.27036123 Ry
     one-center paw contrib.   =    -645.83041788 Ry

     convergence has been achieved in  12 iterations

     negative rho (up, down):  7.677E-03 0.000E+00

     Forces acting on atoms (cartesian axes, Ry/au):

     atom    1 type  1   force =    -0.00000000    0.00002576   -0.00000000
     atom    2 type  1   force =    -0.00000804    0.00000902    0.00000000
     atom    3 type  1   force =     0.00001047   -0.00002896   -0.00000000
     atom    4 type  1   force =    -0.00000065   -0.00000037   -0.00000000
     atom    5 type  1   force =    -0.00001985    0.00002355   -0.00000000
     atom    6 type  1   force =     0.00000379   -0.00001148   -0.00000000
     atom    7 type  1   force =     0.00002231   -0.00001288    0.00000000
     atom    8 type  1   force =     0.00003076    0.00001776    0.00000000
     atom    9 type  1   force =     0.00000804    0.00000902   -0.00000000
     atom   10 type  1   force =     0.00000000   -0.00001446    0.00000000
     atom   11 type  1   force =     0.00001795   -0.00000396   -0.00000000
     atom   12 type  1   force =     0.00000555    0.00001753    0.00000000
     atom   13 type  1   force =    -0.00001253    0.00000723    0.00000000
     atom   14 type  1   force =     0.00001184    0.00000246   -0.00000000
     atom   15 type  1   force =    -0.00000708    0.00001715    0.00000000
     atom   16 type  1   force =     0.00001132   -0.00001470   -0.00000000
     atom   17 type  1   force =    -0.00001047   -0.00002896   -0.00000000
     atom   18 type  1   force =    -0.00001795   -0.00000396    0.00000000
     atom   19 type  1   force =     0.00000000    0.00000000    0.00000000
     atom   20 type  1   force =    -0.00001241   -0.00001357    0.00000000
     atom   21 type  1   force =    -0.00003032    0.00000541   -0.00000000
     atom   22 type  1   force =    -0.00001936    0.00003709    0.00000000
     atom   23 type  1   force =     0.00000327    0.00000189   -0.00000000
     atom   24 type  1   force =     0.00002244   -0.00003531   -0.00000000
     atom   25 type  1   force =     0.00000065   -0.00000037    0.00000000
     atom   26 type  1   force =    -0.00000555    0.00001753   -0.00000000
     atom   27 type  1   force =     0.00001241   -0.00001357    0.00000000
     atom   28 type  1   force =    -0.00000000    0.00000075   -0.00000000
     atom   29 type  1   force =     0.00001936    0.00003709    0.00000000
     atom   30 type  1   force =    -0.00000000    0.00002647    0.00000000
     atom   31 type  1   force =     0.00002292   -0.00001323    0.00000000
     atom   32 type  1   force =     0.00004180   -0.00000178    0.00000000
     atom   33 type  1   force =     0.00001985    0.00002355    0.00000000
     atom   34 type  1   force =     0.00001253    0.00000723   -0.00000000
     atom   35 type  1   force =     0.00003032    0.00000541    0.00000000
     atom   36 type  1   force =     0.00000708    0.00001715    0.00000000
     atom   37 type  1   force =    -0.00000327    0.00000189   -0.00000000
     atom   38 type  1   force =    -0.00002292   -0.00001323    0.00000000
     atom   39 type  1   force =     0.00000000   -0.00000378    0.00000000
     atom   40 type  1   force =     0.00001839   -0.00000245   -0.00000000
     atom   41 type  1   force =    -0.00000379   -0.00001148    0.00000000
     atom   42 type  1   force =    -0.00001184    0.00000246   -0.00000000
     atom   43 type  1   force =    -0.00003076    0.00001776    0.00000000
     atom   44 type  1   force =    -0.00001132   -0.00001470    0.00000000
     atom   45 type  1   force =    -0.00002244   -0.00003531    0.00000000
     atom   46 type  1   force =    -0.00004180   -0.00000178   -0.00000000
     atom   47 type  1   force =    -0.00001839   -0.00000245    0.00000000
     atom   48 type  1   force =     0.00000000   -0.00003552   -0.00000000
     atom   49 type  1   force =    -0.00002231   -0.00001288    0.00000000
     atom   50 type  2   force =    -0.00002520   -0.00001455    0.00000000
     atom   51 type  2   force =     0.00000000   -0.00003530   -0.00000000
     atom   52 type  2   force =    -0.00001255    0.00001080    0.00000000
     atom   53 type  2   force =    -0.00002163    0.00001879    0.00000000
     atom   54 type  2   force =     0.00000545   -0.00002813    0.00000000
     atom   55 type  2   force =     0.00000308   -0.00001627    0.00000000
     atom   56 type  2   force =    -0.00003057    0.00001765    0.00000000
     atom   57 type  2   force =    -0.00001731   -0.00000354    0.00000000
     atom   58 type  2   force =    -0.00001172   -0.00001322    0.00000000
     atom   59 type  2   force =     0.00001255    0.00001080   -0.00000000
     atom   60 type  2   force =    -0.00000000    0.00002190    0.00000000
[...]
     atom   84 type  2   force =    -0.00001563    0.00000546    0.00000000
     atom   85 type  2   force =     0.00001731   -0.00000354   -0.00000000
     atom   86 type  2   force =     0.00000690   -0.00000398   -0.00000000
     atom   87 type  2   force =     0.00003446    0.00001874    0.00000000
     atom   88 type  2   force =     0.00003346    0.00002048    0.00000000
     atom   89 type  2   force =    -0.00000000    0.00000796    0.00000000
     atom   90 type  2   force =     0.00000559    0.00001676    0.00000000
     atom   91 type  2   force =     0.00003057    0.00001765   -0.00000000
     atom   92 type  2   force =     0.00002520   -0.00001455    0.00000000
     atom   93 type  2   force =     0.00001172   -0.00001322    0.00000000
     atom   94 type  2   force =     0.00000174    0.00003041   -0.00000000
     atom   95 type  2   force =     0.00002861    0.00001652    0.00000000
     atom   96 type  2   force =     0.00002720   -0.00001370   -0.00000000
     atom   97 type  2   force =    -0.00000559    0.00001676   -0.00000000
     atom   98 type  2   force =    -0.00000000    0.00002910    0.00000000

     Total force =     0.000254     Total SCF correction =     0.000032
     SCF correction compared to forces is large: reduce conv_thr to get better values

     Computing stress (Cartesian axis) and pressure

     negative rho (up, down):  7.677E-03 0.000E+00
          total   stress  (Ry/bohr**3)                   (kbar)     P=   -0.94
   0.00000002  -0.00000000   0.00000000          0.00     -0.00      0.00
  -0.00000000   0.00000002  -0.00000000         -0.00      0.00     -0.00
   0.00000000   0.00000000  -0.00001919          0.00      0.00     -2.82

     Writing output data file hBN.save/

     General routines

     Parallel routines

   This run was terminated on:  19:50:48   5Jun2021

   JOB DONE.