     Program PWSCF v.6.4.1 starts on  7Jun2021 at 23: 8:42

     R & G space division:  proc/nbgrp/npool/nimage =      64
     Waiting for input...
     Reading input from standard input

     Current dimensions of program PWSCF are:
     Max number of different atomic species (ntypx) = 10
     Max number of k-points (npk) =  40000
     Max angular momentum in pseudopotentials (lmaxx) =  3
               file N.pbe-n-kjpaw_psl.1.0.0.UPF: wavefunction(s)  2S renormalized
               file C.pbe-n-kjpaw_psl.1.0.0.UPF: wavefunction(s)  2S 2P renormalized
               file C.pbe-n-kjpaw_psl.1.0.0.UPF: wavefunction(s)  2S 2P renormalized
               file C.pbe-n-kjpaw_psl.1.0.0.UPF: wavefunction(s)  2S 2P renormalized

     Parameters for DFT-D3 Dispersion Correction:
       Reference C6 values for interpolation:

         atom   Coordination number   C6
         B          0.000           214.36
         B          0.971           150.74
         B          1.944           106.23
         B          2.913            62.89
         B          4.586            56.06
         C1         0.000            98.23
         C1         0.987            86.49
         C1         1.998            58.72
         C1         2.999            51.56
         C1         3.984            36.41
         C2         0.000            98.23
         C2         0.987            86.49
         C2         1.998            58.72
         C2         2.999            51.56
         C2         3.984            36.41
         C3         0.000            98.23
         C3         0.987            86.49
         C3         1.998            58.72
         C3         2.999            51.56
         C3         3.984            36.41
         N          0.000            50.54
         N          0.994            44.25
         N          2.014            39.35
         N          2.990            31.16

       Values used:

         atom   Coordination number  R0_AB[au]  C6      C8
         B          3.323            3.039     62.90   2506.30
         B          3.323            3.039     62.90   2506.30
         B          3.323            3.039     62.90   2506.30
         B          3.323            3.039     62.90   2506.31
         B          3.323            3.039     62.90   2506.30
         B          3.323            3.039     62.90   2506.30
         B          3.323            3.039     62.90   2506.30
         B          3.323            3.039     62.90   2506.30
         B          3.323            3.039     62.90   2506.30
         B          3.325            3.039     62.90   2506.25
         B          3.323            3.039     62.90   2506.30
         B          3.323            3.039     62.90   2506.30
         B          3.323            3.039     62.90   2506.30
         B          3.323            3.039     62.90   2506.30
         B          3.323            3.039     62.90   2506.30
         B          3.323            3.039     62.90   2506.30
         B          3.317            3.039     62.90   2506.45
         B          3.319            3.039     62.90   2506.40
         B          3.323            3.039     62.90   2506.29
         B          3.323            3.039     62.90   2506.30
         B          3.323            3.039     62.90   2506.30
         B          3.323            3.039     62.90   2506.30
         B          3.323            3.039     62.90   2506.30
         B          3.317            3.039     62.90   2506.43
         C2         3.274            2.750     49.03   1417.98
         B          3.319            3.039     62.90   2506.40
         B          3.323            3.039     62.90   2506.30
         B          3.323            3.039     62.90   2506.31
         B          3.323            3.039     62.90   2506.30
         B          3.323            3.039     62.90   2506.30
         B          3.323            3.039     62.90   2506.30
         B          3.317            3.039     62.90   2506.43
         B          3.317            3.039     62.90   2506.45
         B          3.325            3.039     62.90   2506.25
         B          3.323            3.039     62.90   2506.30
         B          3.323            3.039     62.90   2506.30
         B          3.323            3.039     62.90   2506.30
         B          3.323            3.039     62.90   2506.30
         B          3.323            3.039     62.90   2506.30
         B          3.323            3.039     62.90   2506.30
         B          3.323            3.039     62.90   2506.30
         B          3.323            3.039     62.90   2506.30
         B          3.323            3.039     62.90   2506.30
         B          3.323            3.039     62.90   2506.30
         B          3.323            3.039     62.90   2506.30
         B          3.323            3.039     62.90   2506.30
         B          3.323            3.039     62.90   2506.30
         B          3.323            3.039     62.90   2506.30
         B          3.323            3.039     62.90   2506.30
         N          3.129            2.478     31.22    688.75
         N          3.129            2.478     31.22    688.75
         N          3.129            2.478     31.22    688.75
         N          3.129            2.478     31.22    688.75
         N          3.129            2.478     31.22    688.75
         N          3.129            2.478     31.22    688.75
         N          3.129            2.478     31.22    688.75
         N          3.129            2.478     31.22    688.75
         N          3.129            2.478     31.22    688.75
         N          3.136            2.478     31.22    688.68
         N          3.136            2.478     31.22    688.68
[...]
         N          3.129            2.478     31.22    688.75
         N          3.129            2.478     31.22    688.75
         N          3.129            2.478     31.22    688.75
         N          3.129            2.478     31.22    688.75
         N          3.129            2.478     31.22    688.75
         N          3.129            2.478     31.22    688.75
         N          3.129            2.478     31.22    688.75
         N          3.129            2.478     31.22    688.75
         N          3.129            2.478     31.22    688.75
         N          3.129            2.478     31.22    688.75
         N          3.129            2.478     31.22    688.75
         N          3.129            2.478     31.22    688.75
         N          3.129            2.478     31.22    688.75
         N          3.129            2.478     31.22    688.75
         N          3.129            2.478     31.22    688.75

         Molecular C6 ( Ry / a.u.^6 ) =    437644.59

     gamma-point specific algorithms are used

     Message from routine setup:
     DEPRECATED: symmetry with ibrav=0, use correct ibrav instead

     bravais-lattice index     =            0
     lattice parameter (alat)  =      33.2346  a.u.
     unit-cell volume          =   36104.5892 (a.u.)^3
     number of atoms/cell      =           98
     number of atomic types    =            5
     number of electrons       =       391.00
     number of Kohn-Sham states=          245
     kinetic-energy cutoff     =      40.0000  Ry
     charge density cutoff     =     160.0000  Ry
     convergence threshold     =      1.0E-06
     mixing beta               =       0.7000
     number of iterations used =            8  plain     mixing
     Exchange-correlation      = SLA PW PBX PBC ( 1  4  3  4 0 0)
     nstep                     =           50

     celldm(1)=  33.234611  celldm(2)=   0.000000  celldm(3)=   0.000000
     celldm(4)=   0.000000  celldm(5)=   0.000000  celldm(6)=   0.000000

     crystal axes: (cart. coord. in units of alat)
               a(1) = (   0.999334   0.000000   0.000000 )
               a(2) = (  -0.499667   0.865449   0.000000 )
               a(3) = (   0.000000   0.000000   1.137204 )

     reciprocal axes: (cart. coord. in units 2 pi/alat)
               b(1) = (  1.000666  0.577735  0.000000 )
               b(2) = (  0.000000  1.155470  0.000000 )
               b(3) = (  0.000000  0.000000  0.879350 )

     PseudoPot. # 1 for B  read from file:
     ./pseudo/B.pbe-n-kjpaw_psl.1.0.0.UPF
     MD5 check sum: 8c825a5969375aca5c2c6ad5945b3059
     Pseudo is Projector augmented-wave + core cor, Zval =  3.0
     Generated using "atomic" code by A. Dal Corso v.6.3
     Shape of augmentation charge: PSQ
     Using radial grid of 1059 points,  4 beta functions with:
                l(1) =   0
                l(2) =   0
                l(3) =   1
                l(4) =   1
     Q(r) pseudized with 0 coefficients

     PseudoPot. # 2 for N  read from file:
     ./pseudo/N.pbe-n-kjpaw_psl.1.0.0.UPF
     MD5 check sum: 14c48229446f9f2d411169a3abcbc3fa
     Pseudo is Projector augmented-wave + core cor, Zval =  5.0
     Generated using "atomic" code by A. Dal Corso v.6.3
     Shape of augmentation charge: PSQ
     Using radial grid of 1085 points,  4 beta functions with:
                l(1) =   0
                l(2) =   0
                l(3) =   1
                l(4) =   1
     Q(r) pseudized with 0 coefficients

     PseudoPot. # 3 for C  read from file:
     ./pseudo/C.pbe-n-kjpaw_psl.1.0.0.UPF
     MD5 check sum: 5f16ad9a65e90284d1d834d4ab3b0f7d
     Pseudo is Projector augmented-wave + core cor, Zval =  4.0
     Generated using "atomic" code by A. Dal Corso v.6.3
     Shape of augmentation charge: PSQ
     Using radial grid of 1073 points,  4 beta functions with:
                l(1) =   0
                l(2) =   0
                l(3) =   1
                l(4) =   1
     Q(r) pseudized with 0 coefficients

[...]

     atomic species   valence    mass     pseudopotential
        B              3.00    10.00000     B ( 1.00)
        N              5.00    14.00000     N ( 1.00)
        C1             4.00    12.00000     C ( 1.00)
        C2             4.00    12.00000     C ( 1.00)
        C3             4.00    12.00000     C ( 1.00)

     Starting magnetic structure
     atomic species   magnetization
        B            0.000
        N            0.000
        C1           1.000
        C2           0.000
        C3           0.000

      2 Sym. Ops. (no inversion) found

   Cartesian axes

     site n.     atom                  positions (alat units)
         1           B   tau(   1) = (  -0.0000000   0.0824309   0.5686018  )
         2           B   tau(   2) = (  -0.0713829   0.2060622   0.5686018  )
         3           B   tau(   3) = (  -0.1427568   0.3296890   0.5686018  )
         4           B   tau(   4) = (  -0.2141395   0.4533331   0.5686018  )
         5           B   tau(   5) = (  -0.2855266   0.5769736   0.5686018  )
         6           B   tau(   6) = (  -0.3569036   0.7005986   0.5686018  )
         7           B   tau(   7) = (  -0.4282799   0.8242336   0.5686018  )
         8           B   tau(   8) = (   0.1427700   0.0824283   0.5686018  )
         9           B   tau(   9) = (   0.0713829   0.2060622   0.5686018  )
        10           B   tau(  10) = (  -0.0000000   0.3296942   0.5686018  )
[...]
        98           N   tau(  98) = (   0.5008941   0.7848570   0.5686018  )

     number of k points=     1
                       cart. coord. in units 2pi/alat
        k(    1) = (   0.0000000   0.0000000   0.0000000), wk =   1.0000000

     Occupations read from input

      Spin-up

[...]

      Spin-down

[...]

     Check: negative core charge=   -0.000006

     Initial potential from superposition of free atoms

     starting charge  390.98597, renormalised to  391.00000

     negative rho (up, down):  5.509E-02 9.533E-03
     Starting wfcs are  392 randomized atomic wfcs
     Checking if some PAW data can be deallocated...

     Self-consistent Calculation

[...]

     iteration # 11     ecut=    40.00 Ry     beta= 0.70
     CG style diagonalization
     c_bands:  2 eigenvalues not converged
     ethr =  6.03E-08,  avg # of iterations =  3.5

[...]

     total energy              =   -1940.17803416 Ry
     Harris-Foulkes estimate   =   -1940.17803419 Ry
     estimated scf accuracy    <       0.00000010 Ry

[...]

     iteration # 17     ecut=    40.00 Ry     beta= 0.70
     CG style diagonalization
     ethr =  2.65E-11,  avg # of iterations =  3.4

[...]

     Magnetic moment per site:
     atom:    1    charge:    0.8514    magn:   -0.0001    constr:    0.0000
     atom:    2    charge:    0.8464    magn:   -0.0005    constr:    0.0000
     atom:    3    charge:    0.8475    magn:   -0.0004    constr:    0.0000
     atom:    4    charge:    0.8494    magn:    0.0002    constr:    0.0000
     atom:    5    charge:    0.8524    magn:   -0.0010    constr:    0.0000
     atom:    6    charge:    0.8508    magn:    0.0002    constr:    0.0000
     atom:    7    charge:    0.8519    magn:   -0.0009    constr:    0.0000
     atom:    8    charge:    0.8507    magn:   -0.0008    constr:    0.0000
     atom:    9    charge:    0.8515    magn:   -0.0011    constr:    0.0000
     atom:   10    charge:    0.8437    magn:   -0.0036    constr:    0.0000
     atom:   11    charge:    0.8474    magn:   -0.0002    constr:    0.0000
     atom:   12    charge:    0.8528    magn:   -0.0015    constr:    0.0000
     atom:   13    charge:    0.8525    magn:    0.0002    constr:    0.0000
     atom:   14    charge:    0.8508    magn:    0.0002    constr:    0.0000
     atom:   15    charge:    0.8509    magn:   -0.0006    constr:    0.0000
     atom:   16    charge:    0.8564    magn:   -0.0061    constr:    0.0000
     atom:   17    charge:    0.8630    magn:   -0.0131    constr:    0.0000
     atom:   18    charge:    0.8512    magn:   -0.0104    constr:    0.0000
     atom:   19    charge:    0.8605    magn:   -0.0101    constr:    0.0000
     atom:   20    charge:    0.8528    magn:   -0.0015    constr:    0.0000
     atom:   21    charge:    0.8524    magn:   -0.0010    constr:    0.0000
     atom:   22    charge:    0.8475    magn:    0.0000    constr:    0.0000
     atom:   23    charge:    0.8442    magn:   -0.0005    constr:    0.0000
     atom:   24    charge:    0.8406    magn:   -0.0091    constr:    0.0000
     atom:   25    charge:    1.5852    magn:   -0.1484    constr:    0.0000
     atom:   26    charge:    0.8512    magn:   -0.0104    constr:    0.0000
     atom:   27    charge:    0.8474    magn:   -0.0002    constr:    0.0000
     atom:   28    charge:    0.8494    magn:    0.0002    constr:    0.0000
     atom:   29    charge:    0.8475    magn:   -0.0008    constr:    0.0000
     atom:   30    charge:    0.8480    magn:   -0.0000    constr:    0.0000
     atom:   31    charge:    0.8470    magn:   -0.0025    constr:    0.0000
     atom:   32    charge:    0.8406    magn:   -0.0091    constr:    0.0000
     atom:   33    charge:    0.8630    magn:   -0.0131    constr:    0.0000
     atom:   34    charge:    0.8437    magn:   -0.0036    constr:    0.0000
     atom:   35    charge:    0.8475    magn:   -0.0004    constr:    0.0000
     atom:   36    charge:    0.8466    magn:    0.0004    constr:    0.0000
     atom:   37    charge:    0.8461    magn:    0.0004    constr:    0.0000
     atom:   38    charge:    0.8480    magn:   -0.0000    constr:    0.0000
     atom:   39    charge:    0.8442    magn:   -0.0005    constr:    0.0000
     atom:   40    charge:    0.8564    magn:   -0.0061    constr:    0.0000
     atom:   41    charge:    0.8515    magn:   -0.0011    constr:    0.0000
     atom:   42    charge:    0.8464    magn:   -0.0005    constr:    0.0000
     atom:   43    charge:    0.8467    magn:   -0.0011    constr:    0.0000
     atom:   44    charge:    0.8466    magn:    0.0004    constr:    0.0000
     atom:   45    charge:    0.8475    magn:   -0.0008    constr:    0.0000
     atom:   46    charge:    0.8475    magn:    0.0000    constr:    0.0000
     atom:   47    charge:    0.8509    magn:   -0.0006    constr:    0.0000
     atom:   48    charge:    0.8507    magn:   -0.0008    constr:    0.0000
     atom:   49    charge:    0.8514    magn:   -0.0001    constr:    0.0000
     atom:   50    charge:    2.6488    magn:    0.0013    constr:    0.0000
     atom:   51    charge:    2.6494    magn:    0.0005    constr:    0.0000
     atom:   52    charge:    2.6366    magn:    0.0085    constr:    0.0000
     atom:   53    charge:    2.6480    magn:    0.0029    constr:    0.0000
     atom:   54    charge:    2.6497    magn:    0.0007    constr:    0.0000
     atom:   55    charge:    2.6404    magn:   -0.0001    constr:    0.0000
     atom:   56    charge:    2.6440    magn:   -0.0003    constr:    0.0000
     atom:   57    charge:    2.6458    magn:   -0.0018    constr:    0.0000
     atom:   58    charge:    2.6454    magn:    0.0060    constr:    0.0000
     atom:   59    charge:    2.6362    magn:    0.0307    constr:    0.0000
     atom:   60    charge:    2.6380    magn:    0.0147    constr:    0.0000
[...]
     atom:   84    charge:    2.6366    magn:    0.0085    constr:    0.0000
     atom:   85    charge:    2.6453    magn:    0.0012    constr:    0.0000
     atom:   86    charge:    2.6441    magn:   -0.0001    constr:    0.0000
     atom:   87    charge:    2.6431    magn:    0.0005    constr:    0.0000
     atom:   88    charge:    2.6436    magn:    0.0003    constr:    0.0000
     atom:   89    charge:    2.6477    magn:    0.0038    constr:    0.0000
     atom:   90    charge:    2.6454    magn:    0.0060    constr:    0.0000
     atom:   91    charge:    2.6494    magn:    0.0005    constr:    0.0000
     atom:   92    charge:    2.6493    magn:    0.0003    constr:    0.0000
     atom:   93    charge:    2.6453    magn:    0.0012    constr:    0.0000
     atom:   94    charge:    2.6462    magn:    0.0006    constr:    0.0000
     atom:   95    charge:    2.6486    magn:    0.0003    constr:    0.0000
     atom:   96    charge:    2.6484    magn:    0.0009    constr:    0.0000
     atom:   97    charge:    2.6458    magn:   -0.0018    constr:    0.0000
     atom:   98    charge:    2.6488    magn:    0.0013    constr:    0.0000

     End of self-consistent calculation

 ------ SPIN UP ------------

[...]

 ------ SPIN DOWN ----------

          k = 0.0000 0.0000 0.0000 ( 77463 PWs)   bands (ev):

   -21.8479 -21.6307 -21.3905 -21.3813 -21.3540 -21.2877 -21.2634 -20.8720
   -20.6539 -20.6326 -20.6142 -20.5384 -20.5299 -20.4163 -20.2828 -20.2779
   -20.2500 -20.1074 -20.1010 -19.5777 -19.4154 -19.3983 -19.3855 -19.3811
   -19.3717 -19.3613 -19.3474 -19.3014 -19.2973 -19.1535 -19.1482 -19.0269
   -18.9595 -18.9578 -18.9159 -18.7607 -18.7474 -18.5423 -18.5314 -18.5099
   -18.5075 -18.4576 -18.4001 -18.3842 -18.3474 -18.3315 -18.3098 -16.6367
   -14.6802 -13.1769 -12.7762 -12.7746 -12.7420 -12.7121 -12.7075 -12.6419
   -12.5582 -12.5204 -12.5120 -12.4734 -12.4049 -12.1492 -12.0604 -12.0490
   -12.0149 -11.9828 -11.9332 -11.5640 -11.4213 -11.4105 -11.3904 -11.3845
   -11.3602 -11.3547 -11.3491 -11.3034 -11.2907 -11.0594 -11.0267 -10.8756
   -10.7170 -10.7021 -10.6692 -10.6442 -10.4953 -10.0752 -10.0275 -10.0017
    -9.9239  -9.8622  -9.8012  -9.4076  -9.3187  -9.3140  -9.3051  -9.2852
    -9.2722  -9.2137  -9.0665  -8.9497  -8.9087  -8.9062  -8.9035  -8.8913
    -8.8911  -8.8825  -8.8785  -8.8546  -8.8241  -8.8164  -8.8155  -8.8098
    -8.7926  -8.7880  -8.7861  -8.7252  -8.7147  -8.6427  -8.6364  -8.6316
    -8.4554  -8.4217  -8.2131  -8.1846  -8.1820  -8.0860  -8.0746  -7.9268
    -7.8564  -7.8209  -7.8014  -7.7855  -7.7035  -7.6873  -7.5741  -7.5089
    -7.4996  -7.4680  -7.4426  -7.4375  -7.4269  -7.3886  -7.3877  -7.3326
    -7.3269  -7.3205  -7.2919  -7.2683  -7.2154  -7.1683  -7.1646  -7.0337
    -7.0173  -6.9914  -6.8818  -6.7946  -6.6281  -6.5245  -6.2483  -6.1955
    -6.1753  -6.1431  -6.0812  -6.0658  -6.0560  -6.0494  -6.0445  -6.0418
    -6.0246  -6.0116  -5.9678  -5.9643  -5.8079  -5.8045  -5.7678  -5.6886
    -5.5178  -5.4377  -5.4256  -5.3998  -5.2544  -5.2022  -5.0832  -5.0216
    -4.7758  -4.7687  -4.7486  -4.7331  -4.6534  -4.6280  -4.5523  -4.4960
    -4.4830  -4.4725  -4.0644  -2.8326   0.0011   0.1772   0.6717   0.6792
     0.7067   0.7255   0.7333   0.7388   0.7843   0.7930   0.8055   0.8091
     0.8158   0.8340   0.8441   0.8516   0.8788   0.9021   0.9162   0.9500
     0.9669   1.1343   1.2260   1.2307   1.2539   1.2724   1.3148   1.3226
     1.3286   1.3339   1.3422   1.3635   1.3867   1.4352   1.4390   1.4424
     1.4513   1.4594   1.4813   1.8832   2.0912   2.0969   2.1039   2.1359
     2.2692   2.3050   2.3293   2.3388   2.3889

     highest occupied, lowest unoccupied level (ev):    -3.6454   -4.0644

!    total energy              =   -1940.17803417 Ry
     Harris-Foulkes estimate   =   -1940.17803419 Ry
     estimated scf accuracy    <          4.4E-09 Ry

     total all-electron energy =     -7770.002511 Ry

     The total energy is the sum of the following terms:

     one-electron contribution =  -10644.68489223 Ry
     hartree contribution      =    5407.93637885 Ry
     xc contribution           =    -430.68647318 Ry
     ewald contribution        =    4370.70447572 Ry
     DFT-D3 Dispersion         =      -0.27014434 Ry
     one-center paw contrib.   =    -643.17737899 Ry

     total magnetization       =     1.00 Bohr mag/cell
     absolute magnetization    =     2.39 Bohr mag/cell

     convergence has been achieved in  17 iterations

     negative rho (up, down):  4.795E-01 7.846E-03

     Forces acting on atoms (cartesian axes, Ry/au):

     atom    1 type  1   force =    -0.00011737   -0.00033164    0.00000000
     atom    2 type  1   force =    -0.00032512   -0.00022690    0.00000000
     atom    3 type  1   force =    -0.00035523    0.00001162    0.00000000
     atom    4 type  1   force =    -0.00010154    0.00007043    0.00000000
     atom    5 type  1   force =     0.00036685   -0.00050743    0.00000000
     atom    6 type  1   force =     0.00017342   -0.00006952    0.00000000
     atom    7 type  1   force =    -0.00029325    0.00016771    0.00000000
     atom    8 type  1   force =    -0.00021973    0.00036905    0.00000000
     atom    9 type  1   force =    -0.00000580    0.00011384    0.00000000
     atom   10 type  1   force =    -0.00022308   -0.00021421    0.00000000
     atom   11 type  1   force =    -0.00014198   -0.00029569    0.00000000
     atom   12 type  1   force =     0.00057441   -0.00022716    0.00000000
     atom   13 type  1   force =     0.00049407   -0.00028756    0.00000000
     atom   14 type  1   force =     0.00014502   -0.00011791    0.00000000
     atom   15 type  1   force =     0.00002532    0.00009425    0.00000000
     atom   16 type  1   force =    -0.00015178    0.00006954    0.00000000
     atom   17 type  1   force =     0.00000516   -0.00031893    0.00000000
     atom   18 type  1   force =    -0.00015120   -0.00028445    0.00000000
     atom   19 type  1   force =     0.00006358   -0.00003735    0.00000000
     atom   20 type  1   force =     0.00048362   -0.00038758    0.00000000
     atom   21 type  1   force =     0.00062177   -0.00006630    0.00000000
     atom   22 type  1   force =     0.00036314   -0.00028831    0.00000000
     atom   23 type  1   force =    -0.00014190    0.00033927    0.00000000
     atom   24 type  1   force =    -0.00017960    0.00005500    0.00000000
     atom   25 type  4   force =     0.00021215   -0.00012262    0.00000000
     atom   26 type  1   force =     0.00017055    0.00027313    0.00000000
     atom   27 type  1   force =     0.00018592    0.00026809    0.00000000
     atom   28 type  1   force =    -0.00011115    0.00005017    0.00000000
     atom   29 type  1   force =     0.00000137    0.00012275    0.00000000
     atom   30 type  1   force =    -0.00002152   -0.00007434    0.00000000
     atom   31 type  1   force =    -0.00023568    0.00013628    0.00000000
     atom   32 type  1   force =    -0.00013733    0.00012743    0.00000000
     atom   33 type  1   force =     0.00027851    0.00015518    0.00000000
     atom   34 type  1   force =     0.00007426    0.00029880    0.00000000
     atom   35 type  1   force =    -0.00018631    0.00030056    0.00000000
     atom   36 type  1   force =    -0.00016892    0.00017771    0.00000000
     atom   37 type  1   force =     0.00000019    0.00000221    0.00000000
     atom   38 type  1   force =     0.00005564    0.00005780    0.00000000
     atom   39 type  1   force =    -0.00036248   -0.00004637    0.00000000
     atom   40 type  1   force =    -0.00013379    0.00009734    0.00000000
     atom   41 type  1   force =    -0.00010067   -0.00005249    0.00000000
     atom   42 type  1   force =     0.00003539    0.00039443    0.00000000
     atom   43 type  1   force =    -0.00006198    0.00003698    0.00000000
     atom   44 type  1   force =    -0.00023740    0.00006035    0.00000000
     atom   45 type  1   force =    -0.00010459   -0.00006008    0.00000000
     atom   46 type  1   force =     0.00043313   -0.00016947    0.00000000
     atom   47 type  1   force =    -0.00006638   -0.00006924    0.00000000
     atom   48 type  1   force =    -0.00042778    0.00000475    0.00000000
     atom   49 type  1   force =     0.00022956    0.00026662    0.00000000
     atom   50 type  2   force =     0.00037623   -0.00000409    0.00000000
     atom   51 type  2   force =     0.00015863   -0.00013331    0.00000000
     atom   52 type  2   force =    -0.00041727   -0.00029238    0.00000000
     atom   53 type  2   force =    -0.00018454    0.00005655    0.00000000
     atom   54 type  2   force =     0.00051990    0.00021304    0.00000000
     atom   55 type  2   force =     0.00015022    0.00002992    0.00000000
     atom   56 type  2   force =     0.00022706   -0.00012914    0.00000000
     atom   57 type  2   force =    -0.00008443   -0.00022056    0.00000000
     atom   58 type  2   force =    -0.00007288   -0.00035848    0.00000000
     atom   59 type  2   force =    -0.00032546   -0.00058168    0.00000000
     atom   60 type  2   force =    -0.00046790   -0.00006349    0.00000000
[...]
     atom   84 type  2   force =     0.00004295    0.00050915    0.00000000
     atom   85 type  2   force =    -0.00015934   -0.00029660    0.00000000
     atom   86 type  2   force =    -0.00009682    0.00005361    0.00000000
     atom   87 type  2   force =    -0.00023013    0.00017196    0.00000000
     atom   88 type  2   force =    -0.00006171    0.00040264    0.00000000
     atom   89 type  2   force =     0.00015108    0.00038319    0.00000000
     atom   90 type  2   force =     0.00027215    0.00024201    0.00000000
     atom   91 type  2   force =     0.00019348   -0.00006962    0.00000000
     atom   92 type  2   force =     0.00027638   -0.00015963    0.00000000
     atom   93 type  2   force =     0.00017736    0.00028451    0.00000000
     atom   94 type  2   force =     0.00024469    0.00020272    0.00000000
     atom   95 type  2   force =     0.00038705    0.00014019    0.00000000
     atom   96 type  2   force =    -0.00001255    0.00034181    0.00000000
     atom   97 type  2   force =     0.00014840    0.00018526    0.00000000
     atom   98 type  2   force =     0.00019161   -0.00032188    0.00000000

     Total force =     0.003453     Total SCF correction =     0.000107

     Computing stress (Cartesian axis) and pressure

     negative rho (up, down):  4.795E-01 7.846E-03
          total   stress  (Ry/bohr**3)                   (kbar)     P=   -0.12
   0.00000043   0.00000000   0.00000000          0.06      0.00      0.00
   0.00000000   0.00000044   0.00000000          0.00      0.06      0.00
   0.00000000   0.00000000  -0.00000334          0.00      0.00     -0.49

     Writing output data file C2Cn.save/

     General routines

     Parallel routines

   This run was terminated on:   0:34:57   8Jun2021

   JOB DONE.