     Program PWSCF v.6.4.1 starts on  9Jun2021 at 10:31: 1

     R & G space division:  proc/nbgrp/npool/nimage =      64
     Waiting for input...
     Reading input from standard input

     Current dimensions of program PWSCF are:
     Max number of different atomic species (ntypx) = 10
     Max number of k-points (npk) =  40000
     Max angular momentum in pseudopotentials (lmaxx) =  3
               file N.pbe-n-kjpaw_psl.1.0.0.UPF: wavefunction(s)  2S renormalized
               file C.pbe-n-kjpaw_psl.1.0.0.UPF: wavefunction(s)  2S 2P renormalized
               file C.pbe-n-kjpaw_psl.1.0.0.UPF: wavefunction(s)  2S 2P renormalized
               file C.pbe-n-kjpaw_psl.1.0.0.UPF: wavefunction(s)  2S 2P renormalized

     Parameters for DFT-D3 Dispersion Correction:
       Reference C6 values for interpolation:

         atom   Coordination number   C6
         B          0.000           214.36
         B          0.971           150.74
         B          1.944           106.23
         B          2.913            62.89
         B          4.586            56.06
         C1         0.000            98.23
         C1         0.987            86.49
         C1         1.998            58.72
         C1         2.999            51.56
         C1         3.984            36.41
         C2         0.000            98.23
         C2         0.987            86.49
         C2         1.998            58.72
         C2         2.999            51.56
         C2         3.984            36.41
         C3         0.000            98.23
         C3         0.987            86.49
         C3         1.998            58.72
         C3         2.999            51.56
         C3         3.984            36.41
         N          0.000            50.54
         N          0.994            44.25
         N          2.014            39.35
         N          2.990            31.16

       Values used:

         atom   Coordination number  R0_AB[au]  C6      C8
         B          3.327            3.039     62.90   2506.22
         B          3.317            3.039     62.90   2506.44
         B          3.318            3.039     62.90   2506.43
         B          3.324            3.039     62.90   2506.28
         B          3.325            3.039     62.90   2506.26
         B          3.323            3.039     62.90   2506.30
         B          3.326            3.039     62.90   2506.23
         B          3.324            3.039     62.90   2506.27
         B          3.325            3.039     62.90   2506.27
         B          3.306            3.039     62.91   2506.68
         B          3.319            3.039     62.90   2506.38
         B          3.325            3.039     62.90   2506.26
         B          3.323            3.039     62.90   2506.31
         B          3.323            3.039     62.90   2506.30
         B          3.323            3.039     62.90   2506.29
         B          3.326            3.039     62.90   2506.23
         B          3.293            3.039     62.92   2506.97
         B          3.278            3.039     62.92   2507.31
         B          3.322            3.039     62.90   2506.32
         B          3.325            3.039     62.90   2506.26
         B          3.325            3.039     62.90   2506.26
         B          3.322            3.039     62.90   2506.34
         B          3.317            3.039     62.90   2506.44
         B          3.305            3.039     62.91   2506.70
         C2         3.234            2.750     49.64   1435.59
         B          3.278            3.039     62.92   2507.31
         B          3.319            3.039     62.90   2506.38
         B          3.324            3.039     62.90   2506.28
         B          3.319            3.039     62.90   2506.39
         B          3.316            3.039     62.90   2506.46
         B          3.307            3.039     62.91   2506.67
         B          3.305            3.039     62.91   2506.70
         B          3.293            3.039     62.92   2506.97
         B          3.306            3.039     62.91   2506.68
         B          3.318            3.039     62.90   2506.43
         B          3.316            3.039     62.90   2506.47
         B          3.316            3.039     62.90   2506.46
         B          3.316            3.039     62.90   2506.46
         B          3.317            3.039     62.90   2506.44
         B          3.326            3.039     62.90   2506.23
         B          3.325            3.039     62.90   2506.27
         B          3.317            3.039     62.90   2506.44
         B          3.319            3.039     62.90   2506.40
         B          3.316            3.039     62.90   2506.47
         B          3.319            3.039     62.90   2506.39
         B          3.322            3.039     62.90   2506.34
         B          3.323            3.039     62.90   2506.29
         B          3.324            3.039     62.90   2506.27
         B          3.327            3.039     62.90   2506.22
         N          3.129            2.478     31.22    688.74
         N          3.129            2.478     31.22    688.75
         N          3.126            2.478     31.22    688.78
         N          3.128            2.478     31.22    688.76
         N          3.129            2.478     31.22    688.74
         N          3.128            2.478     31.22    688.75
         N          3.128            2.478     31.22    688.75
         N          3.128            2.478     31.22    688.75
         N          3.129            2.478     31.22    688.74
         N          3.126            2.478     31.22    688.78
         N          3.123            2.478     31.22    688.80
[...]
         N          3.126            2.478     31.22    688.78
         N          3.126            2.478     31.22    688.77
         N          3.126            2.478     31.22    688.78
         N          3.126            2.478     31.22    688.77
         N          3.126            2.478     31.22    688.77
         N          3.129            2.478     31.22    688.75
         N          3.129            2.478     31.22    688.74
         N          3.129            2.478     31.22    688.75
         N          3.129            2.478     31.22    688.74
         N          3.126            2.478     31.22    688.77
         N          3.127            2.478     31.22    688.77
         N          3.128            2.478     31.22    688.75
         N          3.129            2.478     31.22    688.75
         N          3.128            2.478     31.22    688.75
         N          3.129            2.478     31.22    688.74

         Molecular C6 ( Ry / a.u.^6 ) =    437763.30

     gamma-point specific algorithms are used

     Message from routine setup:
     DEPRECATED: symmetry with ibrav=0, use correct ibrav instead

     bravais-lattice index     =            0
     lattice parameter (alat)  =      33.2346  a.u.
     unit-cell volume          =   36237.7857 (a.u.)^3
     number of atoms/cell      =           98
     number of atomic types    =            5
     number of electrons       =       391.00
     number of Kohn-Sham states=          245
     kinetic-energy cutoff     =      40.0000  Ry
     charge density cutoff     =     160.0000  Ry
     convergence threshold     =      1.0E-12
     mixing beta               =       0.7000
     number of iterations used =            8  plain     mixing
     Exchange-correlation      = SLA PW PBX PBC ( 1  4  3  4 0 0)
     nstep                     =           50

     celldm(1)=  33.234611  celldm(2)=   0.000000  celldm(3)=   0.000000
     celldm(4)=   0.000000  celldm(5)=   0.000000  celldm(6)=   0.000000

     crystal axes: (cart. coord. in units of alat)
               a(1) = (   1.001046   0.000225   0.000000 )
               a(2) = (  -0.500328   0.867044   0.000000 )
               a(3) = (   0.000000   0.000000   1.137204 )

     reciprocal axes: (cart. coord. in units 2 pi/alat)
               b(1) = (  0.998825  0.576373  0.000000 )
               b(2) = ( -0.000259  1.153194  0.000000 )
               b(3) = (  0.000000  0.000000  0.879350 )

     PseudoPot. # 1 for B  read from file:
     ./pseudo/B.pbe-n-kjpaw_psl.1.0.0.UPF
     MD5 check sum: 8c825a5969375aca5c2c6ad5945b3059
     Pseudo is Projector augmented-wave + core cor, Zval =  3.0
     Generated using "atomic" code by A. Dal Corso v.6.3
     Shape of augmentation charge: PSQ
     Using radial grid of 1059 points,  4 beta functions with:
                l(1) =   0
                l(2) =   0
                l(3) =   1
                l(4) =   1
     Q(r) pseudized with 0 coefficients

     PseudoPot. # 2 for N  read from file:
     ./pseudo/N.pbe-n-kjpaw_psl.1.0.0.UPF
     MD5 check sum: 14c48229446f9f2d411169a3abcbc3fa
     Pseudo is Projector augmented-wave + core cor, Zval =  5.0
     Generated using "atomic" code by A. Dal Corso v.6.3
     Shape of augmentation charge: PSQ
     Using radial grid of 1085 points,  4 beta functions with:
                l(1) =   0
                l(2) =   0
                l(3) =   1
                l(4) =   1
     Q(r) pseudized with 0 coefficients

     PseudoPot. # 3 for C  read from file:
     ./pseudo/C.pbe-n-kjpaw_psl.1.0.0.UPF
     MD5 check sum: 5f16ad9a65e90284d1d834d4ab3b0f7d
     Pseudo is Projector augmented-wave + core cor, Zval =  4.0
     Generated using "atomic" code by A. Dal Corso v.6.3
     Shape of augmentation charge: PSQ
     Using radial grid of 1073 points,  4 beta functions with:
                l(1) =   0
                l(2) =   0
                l(3) =   1
                l(4) =   1
     Q(r) pseudized with 0 coefficients

[...]

     atomic species   valence    mass     pseudopotential
        B              3.00    10.00000     B ( 1.00)
        N              5.00    14.00000     N ( 1.00)
        C1             4.00    12.00000     C ( 1.00)
        C2             4.00    12.00000     C ( 1.00)
        C3             4.00    12.00000     C ( 1.00)

     Starting magnetic structure
     atomic species   magnetization
        B            0.000
        N            0.000
        C1           1.000
        C2           0.000
        C3           0.000

      2 Sym. Ops. (no inversion) found

   Cartesian axes

     site n.     atom                  positions (alat units)
         1           B   tau(   1) = (  -0.0000556   0.0820633   0.5686018  )
         2           B   tau(   2) = (  -0.0715941   0.2061393   0.5686018  )
         3           B   tau(   3) = (  -0.1432678   0.3302710   0.5686018  )
         4           B   tau(   4) = (  -0.2148259   0.4541136   0.5686018  )
         5           B   tau(   5) = (  -0.2858274   0.5779991   0.5686018  )
         6           B   tau(   6) = (  -0.3570784   0.7019733   0.5686018  )
         7           B   tau(   7) = (  -0.4286784   0.8256769   0.5686018  )
         8           B   tau(   8) = (   0.1429300   0.0817696   0.5686018  )
         9           B   tau(   9) = (   0.0710341   0.2049652   0.5686018  )
        10           B   tau(  10) = (  -0.0002682   0.3300827   0.5686018  )
[...]
        98           N   tau(  98) = (   0.5010190   0.7849371   0.5686018  )

     number of k points=     1
                       cart. coord. in units 2pi/alat
        k(    1) = (   0.0000000   0.0000000   0.0000000), wk =   1.0000000

     Occupations read from input

      Spin-up

[...]

      Spin-down

[...]

     Check: negative core charge=   -0.000006

     Initial potential from superposition of free atoms

     starting charge  390.98597, renormalised to  391.00000

     negative rho (up, down):  5.512E-02 1.114E-02
     Starting wfcs are  392 randomized atomic wfcs
     Checking if some PAW data can be deallocated...

     Self-consistent Calculation

[...]

     iteration # 12     ecut=    40.00 Ry     beta= 0.70
     CG style diagonalization
     c_bands:  1 eigenvalues not converged
     ethr =  1.43E-09,  avg # of iterations =  3.8

[...]

     total energy              =   -1940.19887771 Ry
     Harris-Foulkes estimate   =   -1940.19887771 Ry
     estimated scf accuracy    <          1.1E-14 Ry

[...]

     iteration # 31     ecut=    40.00 Ry     beta= 0.70
     CG style diagonalization
     ethr =  1.00E-13,  avg # of iterations =  3.0

[...]

     Magnetic moment per site:
     atom:    1    charge:    0.8565    magn:   -0.0000    constr:    0.0000
     atom:    2    charge:    0.8511    magn:    0.0014    constr:    0.0000
     atom:    3    charge:    0.8521    magn:    0.0012    constr:    0.0000
     atom:    4    charge:    0.8545    magn:    0.0001    constr:    0.0000
     atom:    5    charge:    0.8570    magn:    0.0006    constr:    0.0000
     atom:    6    charge:    0.8556    magn:    0.0000    constr:    0.0000
     atom:    7    charge:    0.8567    magn:    0.0007    constr:    0.0000
     atom:    8    charge:    0.8556    magn:    0.0006    constr:    0.0000
     atom:    9    charge:    0.8568    magn:    0.0003    constr:    0.0000
     atom:   10    charge:    0.8478    magn:    0.0073    constr:    0.0000
     atom:   11    charge:    0.8527    magn:    0.0006    constr:    0.0000
     atom:   12    charge:    0.8573    magn:    0.0004    constr:    0.0000
     atom:   13    charge:    0.8571    magn:   -0.0000    constr:    0.0000
     atom:   14    charge:    0.8556    magn:    0.0000    constr:    0.0000
     atom:   15    charge:    0.8557    magn:    0.0007    constr:    0.0000
     atom:   16    charge:    0.8606    magn:    0.0037    constr:    0.0000
     atom:   17    charge:    0.8681    magn:    0.0133    constr:    0.0000
     atom:   18    charge:    0.8565    magn:    0.0155    constr:    0.0000
     atom:   19    charge:    0.8639    magn:    0.0032    constr:    0.0000
     atom:   20    charge:    0.8573    magn:    0.0004    constr:    0.0000
     atom:   21    charge:    0.8570    magn:    0.0006    constr:    0.0000
     atom:   22    charge:    0.8522    magn:    0.0001    constr:    0.0000
     atom:   23    charge:    0.8490    magn:    0.0004    constr:    0.0000
     atom:   24    charge:    0.8449    magn:    0.0117    constr:    0.0000
     atom:   25    charge:    1.5926    magn:    0.1962    constr:    0.0000
     atom:   26    charge:    0.8565    magn:    0.0155    constr:    0.0000
     atom:   27    charge:    0.8527    magn:    0.0006    constr:    0.0000
     atom:   28    charge:    0.8545    magn:    0.0001    constr:    0.0000
     atom:   29    charge:    0.8523    magn:    0.0006    constr:    0.0000
     atom:   30    charge:    0.8524    magn:    0.0011    constr:    0.0000
     atom:   31    charge:    0.8510    magn:    0.0054    constr:    0.0000
     atom:   32    charge:    0.8449    magn:    0.0117    constr:    0.0000
     atom:   33    charge:    0.8681    magn:    0.0133    constr:    0.0000
     atom:   34    charge:    0.8478    magn:    0.0073    constr:    0.0000
     atom:   35    charge:    0.8521    magn:    0.0012    constr:    0.0000
     atom:   36    charge:    0.8516    magn:    0.0003    constr:    0.0000
     atom:   37    charge:    0.8509    magn:    0.0003    constr:    0.0000
     atom:   38    charge:    0.8524    magn:    0.0011    constr:    0.0000
     atom:   39    charge:    0.8490    magn:    0.0004    constr:    0.0000
     atom:   40    charge:    0.8606    magn:    0.0037    constr:    0.0000
     atom:   41    charge:    0.8568    magn:    0.0003    constr:    0.0000
     atom:   42    charge:    0.8511    magn:    0.0014    constr:    0.0000
     atom:   43    charge:    0.8515    magn:    0.0006    constr:    0.0000
     atom:   44    charge:    0.8516    magn:    0.0003    constr:    0.0000
     atom:   45    charge:    0.8523    magn:    0.0006    constr:    0.0000
     atom:   46    charge:    0.8522    magn:    0.0001    constr:    0.0000
     atom:   47    charge:    0.8557    magn:    0.0007    constr:    0.0000
     atom:   48    charge:    0.8556    magn:    0.0006    constr:    0.0000
     atom:   49    charge:    0.8565    magn:   -0.0000    constr:    0.0000
     atom:   50    charge:    2.6625    magn:    0.0005    constr:    0.0000
     atom:   51    charge:    2.6630    magn:   -0.0005    constr:    0.0000
     atom:   52    charge:    2.6512    magn:    0.0056    constr:    0.0000
     atom:   53    charge:    2.6619    magn:    0.0008    constr:    0.0000
     atom:   54    charge:    2.6631    magn:    0.0004    constr:    0.0000
     atom:   55    charge:    2.6538    magn:    0.0006    constr:    0.0000
     atom:   56    charge:    2.6568    magn:    0.0002    constr:    0.0000
     atom:   57    charge:    2.6589    magn:    0.0018    constr:    0.0000
     atom:   58    charge:    2.6592    magn:    0.0080    constr:    0.0000
     atom:   59    charge:    2.6526    magn:    0.0203    constr:    0.0000
     atom:   60    charge:    2.6522    magn:    0.0098    constr:    0.0000
[...]
     atom:   84    charge:    2.6512    magn:    0.0056    constr:    0.0000
     atom:   85    charge:    2.6588    magn:    0.0003    constr:    0.0000
     atom:   86    charge:    2.6579    magn:    0.0000    constr:    0.0000
     atom:   87    charge:    2.6564    magn:    0.0000    constr:    0.0000
     atom:   88    charge:    2.6571    magn:    0.0000    constr:    0.0000
     atom:   89    charge:    2.6621    magn:    0.0032    constr:    0.0000
     atom:   90    charge:    2.6592    magn:    0.0080    constr:    0.0000
     atom:   91    charge:    2.6630    magn:   -0.0005    constr:    0.0000
     atom:   92    charge:    2.6635    magn:   -0.0001    constr:    0.0000
     atom:   93    charge:    2.6588    magn:    0.0003    constr:    0.0000
     atom:   94    charge:    2.6598    magn:    0.0002    constr:    0.0000
     atom:   95    charge:    2.6622    magn:    0.0002    constr:    0.0000
     atom:   96    charge:    2.6620    magn:    0.0002    constr:    0.0000
     atom:   97    charge:    2.6589    magn:    0.0018    constr:    0.0000
     atom:   98    charge:    2.6625    magn:    0.0005    constr:    0.0000

     End of self-consistent calculation

 ------ SPIN UP ------------

[...]

 ------ SPIN DOWN ----------

          k = 0.0000 0.0000 0.0000 ( 77483 PWs)   bands (ev):

   -21.7537 -21.5410 -21.3745 -21.3650 -21.3497 -21.2769 -21.2250 -20.8203
   -20.6374 -20.6169 -20.6011 -20.5272 -20.5123 -20.3983 -20.2676 -20.2639
   -20.2402 -20.0890 -20.0749 -19.5438 -19.3947 -19.3791 -19.3746 -19.3688
   -19.3586 -19.3514 -19.3382 -19.2909 -19.2863 -19.1386 -19.1357 -19.0108
   -18.9491 -18.9489 -18.9099 -18.7447 -18.7314 -18.5255 -18.5195 -18.4993
   -18.4908 -18.4469 -18.3966 -18.3750 -18.3437 -18.3222 -18.3088 -16.3986
   -14.5986 -13.0442 -12.7561 -12.7489 -12.7281 -12.6992 -12.6931 -12.6271
   -12.5399 -12.5071 -12.4996 -12.4495 -12.3854 -12.1252 -12.0430 -12.0361
   -12.0028 -11.9593 -11.9148 -11.5202 -11.3948 -11.3840 -11.3734 -11.3631
   -11.3499 -11.3420 -11.3409 -11.2896 -11.2668 -11.0315 -11.0067 -10.8436
   -10.7016 -10.6905 -10.6527 -10.6207 -10.4782 -10.0450 -10.0054  -9.9847
    -9.9025  -9.8415  -9.7858  -9.3742  -9.2963  -9.2822  -9.2785  -9.2667
    -9.2591  -9.2052  -9.0291  -8.9255  -8.8926  -8.8920  -8.8830  -8.8727
    -8.8645  -8.8623  -8.8347  -8.8273  -8.8054  -8.8052  -8.8051  -8.7877
    -8.7822  -8.7801  -8.7786  -8.7042  -8.6973  -8.6253  -8.6002  -8.5390
    -8.4444  -8.4090  -8.1997  -8.1732  -8.1731  -8.0603  -8.0536  -7.8488
    -7.8237  -7.8002  -7.7752  -7.7646  -7.6841  -7.6401  -7.5347  -7.4927
    -7.4783  -7.4526  -7.4329  -7.4182  -7.3803  -7.3797  -7.3701  -7.3273
    -7.3028  -7.2965  -7.2727  -7.2637  -7.2019  -7.1358  -7.0691  -7.0142
    -7.0108  -6.9809  -6.8342  -6.7627  -6.6219  -6.5198  -6.1745  -6.1642
    -6.1391  -6.1291  -6.0561  -6.0429  -6.0352  -6.0304  -6.0288  -6.0231
    -6.0116  -5.9926  -5.9479  -5.9408  -5.7942  -5.7502  -5.7435  -5.6864
    -5.4775  -5.4200  -5.4071  -5.3853  -5.1892  -5.1763  -5.0733  -5.0052
    -4.7554  -4.7436  -4.7247  -4.7192  -4.6384  -4.6072  -4.5297  -4.4850
    -4.4696  -4.4626  -3.8179  -2.6918   0.1894   0.5393   0.7133   0.7252
     0.7368   0.7545   0.7699   0.7747   0.7931   0.8112   0.8156   0.8218
     0.8317   0.8384   0.8608   0.8745   0.9070   0.9410   0.9420   0.9701
     1.0455   1.1944   1.2541   1.2832   1.2888   1.3222   1.3264   1.3313
     1.3420   1.3457   1.3491   1.3863   1.4110   1.4358   1.4376   1.4412
     1.4484   1.4566   1.4851   1.8892   2.1025   2.1066   2.1151   2.1234
     2.3132   2.3484   2.3622   2.4154   2.4432

     highest occupied, lowest unoccupied level (ev):    -0.2881   -3.8179

!    total energy              =   -1940.19887769 Ry
     Harris-Foulkes estimate   =   -1940.19887771 Ry
     estimated scf accuracy    <          8.7E-15 Ry

     total all-electron energy =     -7770.023354 Ry

     The total energy is the sum of the following terms:

     one-electron contribution =  -10643.35584626 Ry
     hartree contribution      =    5407.45155094 Ry
     xc contribution           =    -430.72441977 Ry
     ewald contribution        =    4369.87500544 Ry
     DFT-D3 Dispersion         =      -0.27011529 Ry
     one-center paw contrib.   =    -643.17505275 Ry

     total magnetization       =     3.00 Bohr mag/cell
     absolute magnetization    =     3.17 Bohr mag/cell

     convergence has been achieved in  31 iterations

     negative rho (up, down):  4.825E-01 1.330E-02

     Forces acting on atoms (cartesian axes, Ry/au):

     atom    1 type  1   force =     0.00000011   -0.00002067    0.00000000
     atom    2 type  1   force =    -0.00000079   -0.00001220    0.00000000
     atom    3 type  1   force =    -0.00000632    0.00000015    0.00000000
     atom    4 type  1   force =    -0.00000773    0.00000002    0.00000000
     atom    5 type  1   force =    -0.00000044   -0.00001173    0.00000000
     atom    6 type  1   force =    -0.00000166   -0.00000487    0.00000000
     atom    7 type  1   force =    -0.00000546   -0.00000623    0.00000000
     atom    8 type  1   force =    -0.00000435   -0.00001648    0.00000000
     atom    9 type  1   force =    -0.00000754   -0.00001559    0.00000000
     atom   10 type  1   force =    -0.00001104   -0.00000774    0.00000000
     atom   11 type  1   force =    -0.00001264   -0.00000687    0.00000000
     atom   12 type  1   force =    -0.00000644   -0.00000923    0.00000000
     atom   13 type  1   force =     0.00000342   -0.00000432    0.00000000
     atom   14 type  1   force =     0.00000134   -0.00000150    0.00000000
     atom   15 type  1   force =     0.00000381   -0.00000746    0.00000000
     atom   16 type  1   force =    -0.00000659   -0.00000687    0.00000000
     atom   17 type  1   force =    -0.00001240   -0.00000035    0.00000000
     atom   18 type  1   force =    -0.00001088    0.00000043    0.00000000
     atom   19 type  1   force =    -0.00000018   -0.00000023    0.00000000
     atom   20 type  1   force =     0.00000494    0.00000811    0.00000000
     atom   21 type  1   force =     0.00001044    0.00000616    0.00000000
     atom   22 type  1   force =    -0.00000327   -0.00000801    0.00000000
     atom   23 type  1   force =    -0.00001402   -0.00000544    0.00000000
     atom   24 type  1   force =    -0.00001700    0.00000440    0.00000000
     atom   25 type  4   force =    -0.00001126    0.00000544    0.00000000
     atom   26 type  1   force =    -0.00000467    0.00001072    0.00000000
     atom   27 type  1   force =     0.00000274    0.00001569    0.00000000
     atom   28 type  1   force =     0.00000102    0.00000733    0.00000000
     atom   29 type  1   force =    -0.00000770   -0.00000604    0.00000000
     atom   30 type  1   force =    -0.00001699    0.00000059    0.00000000
     atom   31 type  1   force =    -0.00002331    0.00001281    0.00000000
     atom   32 type  1   force =    -0.00001316    0.00001438    0.00000000
     atom   33 type  1   force =    -0.00000577    0.00001668    0.00000000
     atom   34 type  1   force =     0.00000487    0.00001846    0.00000000
     atom   35 type  1   force =     0.00000318    0.00000503    0.00000000
     atom   36 type  1   force =     0.00000014   -0.00000584    0.00000000
     atom   37 type  1   force =    -0.00000855    0.00000337    0.00000000
     atom   38 type  1   force =    -0.00001043    0.00001443    0.00000000
     atom   39 type  1   force =    -0.00000258    0.00001774    0.00000000
     atom   40 type  1   force =     0.00000321    0.00001637    0.00000000
     atom   41 type  1   force =     0.00001170    0.00002035    0.00000000
     atom   42 type  1   force =     0.00001301    0.00000169    0.00000000
     atom   43 type  1   force =     0.00000573   -0.00001113    0.00000000
     atom   44 type  1   force =    -0.00000125    0.00000040    0.00000000
     atom   45 type  1   force =    -0.00000271    0.00001304    0.00000000
     atom   46 type  1   force =     0.00000519    0.00001061    0.00000000
     atom   47 type  1   force =     0.00000883    0.00000425    0.00000000
     atom   48 type  1   force =     0.00000906    0.00001158    0.00000000
     atom   49 type  1   force =     0.00001133   -0.00000322    0.00000000
     atom   50 type  2   force =     0.00001344    0.00000289    0.00000000
     atom   51 type  2   force =    -0.00000048   -0.00000198    0.00000000
     atom   52 type  2   force =    -0.00000138   -0.00001438    0.00000000
     atom   53 type  2   force =     0.00001041   -0.00001407    0.00000000
     atom   54 type  2   force =     0.00001833   -0.00000335    0.00000000
     atom   55 type  2   force =     0.00002134   -0.00000130    0.00000000
     atom   56 type  2   force =     0.00002575   -0.00000996    0.00000000
     atom   57 type  2   force =     0.00001154   -0.00000844    0.00000000
     atom   58 type  2   force =    -0.00000012   -0.00000052    0.00000000
     atom   59 type  2   force =    -0.00000931   -0.00001564    0.00000000
     atom   60 type  2   force =    -0.00000344   -0.00000993    0.00000000
[...]
     atom   84 type  2   force =     0.00000612    0.00000626    0.00000000
     atom   85 type  2   force =    -0.00000292    0.00001521    0.00000000
     atom   86 type  2   force =    -0.00000682    0.00000826    0.00000000
     atom   87 type  2   force =    -0.00001596   -0.00000628    0.00000000
     atom   88 type  2   force =    -0.00000865   -0.00001211    0.00000000
     atom   89 type  2   force =    -0.00000117   -0.00000555    0.00000000
     atom   90 type  2   force =     0.00000148   -0.00000639    0.00000000
     atom   91 type  2   force =     0.00000382    0.00000378    0.00000000
     atom   92 type  2   force =    -0.00000323    0.00001319    0.00000000
     atom   93 type  2   force =    -0.00000683    0.00000258    0.00000000
     atom   94 type  2   force =    -0.00000615   -0.00001383    0.00000000
     atom   95 type  2   force =     0.00000129   -0.00001938    0.00000000
     atom   96 type  2   force =     0.00000976   -0.00000946    0.00000000
     atom   97 type  2   force =     0.00001682   -0.00000726    0.00000000
     atom   98 type  2   force =     0.00001280   -0.00000474    0.00000000

     Total force =     0.000133     Total SCF correction =     0.000000

     Computing stress (Cartesian axis) and pressure

     negative rho (up, down):  4.825E-01 1.330E-02
          total   stress  (Ry/bohr**3)                   (kbar)     P=   -0.16
   0.00000001  -0.00000001   0.00000000          0.00     -0.00      0.00
  -0.00000001   0.00000001   0.00000000         -0.00      0.00      0.00
   0.00000000   0.00000000  -0.00000335          0.00      0.00     -0.49

     Writing output data file C2Cn.save/

     General routines

     Parallel routines

   This run was terminated on:  11:53:14   9Jun2021

   JOB DONE.