     Program PWSCF v.6.4.1 starts on  9Jun2021 at  0:25:46

     R & G space division:  proc/nbgrp/npool/nimage =      64
     Waiting for input...
     Reading input from standard input

     Current dimensions of program PWSCF are:
     Max number of different atomic species (ntypx) = 10
     Max number of k-points (npk) =  40000
     Max angular momentum in pseudopotentials (lmaxx) =  3
               file N.pbe-n-kjpaw_psl.1.0.0.UPF: wavefunction(s)  2S renormalized
               file C.pbe-n-kjpaw_psl.1.0.0.UPF: wavefunction(s)  2S 2P renormalized
               file C.pbe-n-kjpaw_psl.1.0.0.UPF: wavefunction(s)  2S 2P renormalized
               file C.pbe-n-kjpaw_psl.1.0.0.UPF: wavefunction(s)  2S 2P renormalized

     Parameters for DFT-D3 Dispersion Correction:
       Reference C6 values for interpolation:

         atom   Coordination number   C6
         B          0.000           214.36
         B          0.971           150.74
         B          1.944           106.23
         B          2.913            62.89
         B          4.586            56.06
         C1         0.000            98.23
         C1         0.987            86.49
         C1         1.998            58.72
         C1         2.999            51.56
         C1         3.984            36.41
         C2         0.000            98.23
         C2         0.987            86.49
         C2         1.998            58.72
         C2         2.999            51.56
         C2         3.984            36.41
         C3         0.000            98.23
         C3         0.987            86.49
         C3         1.998            58.72
         C3         2.999            51.56
         C3         3.984            36.41
         N          0.000            50.54
         N          0.994            44.25
         N          2.014            39.35
         N          2.990            31.16

       Values used:

         atom   Coordination number  R0_AB[au]  C6      C8
         B          3.323            3.039     62.90   2506.30
         B          3.323            3.039     62.90   2506.30
         B          3.323            3.039     62.90   2506.30
         B          3.323            3.039     62.90   2506.31
         B          3.323            3.039     62.90   2506.30
         B          3.323            3.039     62.90   2506.30
         B          3.323            3.039     62.90   2506.30
         B          3.323            3.039     62.90   2506.30
         B          3.323            3.039     62.90   2506.30
         B          3.325            3.039     62.90   2506.25
         B          3.323            3.039     62.90   2506.30
         B          3.323            3.039     62.90   2506.30
         B          3.323            3.039     62.90   2506.30
         B          3.323            3.039     62.90   2506.30
         B          3.323            3.039     62.90   2506.30
         B          3.323            3.039     62.90   2506.30
         B          3.317            3.039     62.90   2506.45
         B          3.319            3.039     62.90   2506.40
         B          3.323            3.039     62.90   2506.29
         B          3.323            3.039     62.90   2506.30
         B          3.323            3.039     62.90   2506.30
         B          3.323            3.039     62.90   2506.30
         B          3.323            3.039     62.90   2506.30
         B          3.317            3.039     62.90   2506.43
         C2         3.274            2.750     49.03   1417.98
         B          3.319            3.039     62.90   2506.40
         B          3.323            3.039     62.90   2506.30
         B          3.323            3.039     62.90   2506.31
         B          3.323            3.039     62.90   2506.30
         B          3.323            3.039     62.90   2506.30
         B          3.323            3.039     62.90   2506.30
         B          3.317            3.039     62.90   2506.43
         B          3.317            3.039     62.90   2506.45
         B          3.325            3.039     62.90   2506.25
         B          3.323            3.039     62.90   2506.30
         B          3.323            3.039     62.90   2506.30
         B          3.323            3.039     62.90   2506.30
         B          3.323            3.039     62.90   2506.30
         B          3.323            3.039     62.90   2506.30
         B          3.323            3.039     62.90   2506.30
         B          3.323            3.039     62.90   2506.30
         B          3.323            3.039     62.90   2506.30
         B          3.323            3.039     62.90   2506.30
         B          3.323            3.039     62.90   2506.30
         B          3.323            3.039     62.90   2506.30
         B          3.323            3.039     62.90   2506.30
         B          3.323            3.039     62.90   2506.30
         B          3.323            3.039     62.90   2506.30
         B          3.323            3.039     62.90   2506.30
         N          3.129            2.478     31.22    688.75
         N          3.129            2.478     31.22    688.75
         N          3.129            2.478     31.22    688.75
         N          3.129            2.478     31.22    688.75
         N          3.129            2.478     31.22    688.75
         N          3.129            2.478     31.22    688.75
         N          3.129            2.478     31.22    688.75
         N          3.129            2.478     31.22    688.75
         N          3.129            2.478     31.22    688.75
         N          3.136            2.478     31.22    688.68
         N          3.136            2.478     31.22    688.68
[...]
         N          3.129            2.478     31.22    688.75
         N          3.129            2.478     31.22    688.75
         N          3.129            2.478     31.22    688.75
         N          3.129            2.478     31.22    688.75
         N          3.129            2.478     31.22    688.75
         N          3.129            2.478     31.22    688.75
         N          3.129            2.478     31.22    688.75
         N          3.129            2.478     31.22    688.75
         N          3.129            2.478     31.22    688.75
         N          3.129            2.478     31.22    688.75
         N          3.129            2.478     31.22    688.75
         N          3.129            2.478     31.22    688.75
         N          3.129            2.478     31.22    688.75
         N          3.129            2.478     31.22    688.75
         N          3.129            2.478     31.22    688.75

         Molecular C6 ( Ry / a.u.^6 ) =    437644.59

     gamma-point specific algorithms are used

     Message from routine setup:
     DEPRECATED: symmetry with ibrav=0, use correct ibrav instead

     bravais-lattice index     =            0
     lattice parameter (alat)  =      33.2346  a.u.
     unit-cell volume          =   36104.5892 (a.u.)^3
     number of atoms/cell      =           98
     number of atomic types    =            5
     number of electrons       =       391.00
     number of Kohn-Sham states=          245
     kinetic-energy cutoff     =      40.0000  Ry
     charge density cutoff     =     160.0000  Ry
     convergence threshold     =      1.0E-06
     mixing beta               =       0.7000
     number of iterations used =            8  plain     mixing
     Exchange-correlation      = SLA PW PBX PBC ( 1  4  3  4 0 0)
     nstep                     =           50

     celldm(1)=  33.234611  celldm(2)=   0.000000  celldm(3)=   0.000000
     celldm(4)=   0.000000  celldm(5)=   0.000000  celldm(6)=   0.000000

     crystal axes: (cart. coord. in units of alat)
               a(1) = (   0.999334   0.000000   0.000000 )
               a(2) = (  -0.499667   0.865449   0.000000 )
               a(3) = (   0.000000   0.000000   1.137204 )

     reciprocal axes: (cart. coord. in units 2 pi/alat)
               b(1) = (  1.000666  0.577735  0.000000 )
               b(2) = (  0.000000  1.155470  0.000000 )
               b(3) = (  0.000000  0.000000  0.879350 )

     PseudoPot. # 1 for B  read from file:
     ./pseudo/B.pbe-n-kjpaw_psl.1.0.0.UPF
     MD5 check sum: 8c825a5969375aca5c2c6ad5945b3059
     Pseudo is Projector augmented-wave + core cor, Zval =  3.0
     Generated using "atomic" code by A. Dal Corso v.6.3
     Shape of augmentation charge: PSQ
     Using radial grid of 1059 points,  4 beta functions with:
                l(1) =   0
                l(2) =   0
                l(3) =   1
                l(4) =   1
     Q(r) pseudized with 0 coefficients

     PseudoPot. # 2 for N  read from file:
     ./pseudo/N.pbe-n-kjpaw_psl.1.0.0.UPF
     MD5 check sum: 14c48229446f9f2d411169a3abcbc3fa
     Pseudo is Projector augmented-wave + core cor, Zval =  5.0
     Generated using "atomic" code by A. Dal Corso v.6.3
     Shape of augmentation charge: PSQ
     Using radial grid of 1085 points,  4 beta functions with:
                l(1) =   0
                l(2) =   0
                l(3) =   1
                l(4) =   1
     Q(r) pseudized with 0 coefficients

     PseudoPot. # 3 for C  read from file:
     ./pseudo/C.pbe-n-kjpaw_psl.1.0.0.UPF
     MD5 check sum: 5f16ad9a65e90284d1d834d4ab3b0f7d
     Pseudo is Projector augmented-wave + core cor, Zval =  4.0
     Generated using "atomic" code by A. Dal Corso v.6.3
     Shape of augmentation charge: PSQ
     Using radial grid of 1073 points,  4 beta functions with:
                l(1) =   0
                l(2) =   0
                l(3) =   1
                l(4) =   1
     Q(r) pseudized with 0 coefficients

[...]

     atomic species   valence    mass     pseudopotential
        B              3.00    10.00000     B ( 1.00)
        N              5.00    14.00000     N ( 1.00)
        C1             4.00    12.00000     C ( 1.00)
        C2             4.00    12.00000     C ( 1.00)
        C3             4.00    12.00000     C ( 1.00)

     Starting magnetic structure
     atomic species   magnetization
        B            0.000
        N            0.000
        C1           1.000
        C2           0.000
        C3           0.000

      2 Sym. Ops. (no inversion) found

   Cartesian axes

     site n.     atom                  positions (alat units)
         1           B   tau(   1) = (  -0.0000000   0.0824309   0.5686018  )
         2           B   tau(   2) = (  -0.0713829   0.2060622   0.5686018  )
         3           B   tau(   3) = (  -0.1427568   0.3296890   0.5686018  )
         4           B   tau(   4) = (  -0.2141395   0.4533331   0.5686018  )
         5           B   tau(   5) = (  -0.2855266   0.5769736   0.5686018  )
         6           B   tau(   6) = (  -0.3569036   0.7005986   0.5686018  )
         7           B   tau(   7) = (  -0.4282799   0.8242336   0.5686018  )
         8           B   tau(   8) = (   0.1427700   0.0824283   0.5686018  )
         9           B   tau(   9) = (   0.0713829   0.2060622   0.5686018  )
        10           B   tau(  10) = (  -0.0000000   0.3296942   0.5686018  )
[...]
        98           N   tau(  98) = (   0.5004353   0.7839987   0.5686018  )

     number of k points=     1
                       cart. coord. in units 2pi/alat
        k(    1) = (   0.0000000   0.0000000   0.0000000), wk =   1.0000000

     Occupations read from input

      Spin-up

[...]

      Spin-down

[...]

     Check: negative core charge=   -0.000006

     Initial potential from superposition of free atoms

     starting charge  390.98597, renormalised to  391.00000

     negative rho (up, down):  5.517E-02 5.927E-03
     Starting wfcs are  392 randomized atomic wfcs
     Checking if some PAW data can be deallocated...

     Self-consistent Calculation

[...]

     iteration #  8     ecut=    40.00 Ry     beta= 0.70
     CG style diagonalization
     c_bands:  1 eigenvalues not converged
     ethr =  2.00E-06,  avg # of iterations =  3.3

[...]

     total energy              =   -1940.22694343 Ry
     Harris-Foulkes estimate   =   -1940.22694342 Ry
     estimated scf accuracy    <       0.00000002 Ry

[...]

     iteration # 16     ecut=    40.00 Ry     beta= 0.70
     CG style diagonalization
     ethr =  5.86E-12,  avg # of iterations =  3.9

[...]

     Magnetic moment per site:
     atom:    1    charge:    0.8307    magn:    0.0001    constr:    0.0000
     atom:    2    charge:    0.8260    magn:    0.0013    constr:    0.0000
     atom:    3    charge:    0.8267    magn:    0.0008    constr:    0.0000
     atom:    4    charge:    0.8296    magn:    0.0000    constr:    0.0000
     atom:    5    charge:    0.8323    magn:    0.0008    constr:    0.0000
     atom:    6    charge:    0.8305    magn:   -0.0001    constr:    0.0000
     atom:    7    charge:    0.8312    magn:    0.0008    constr:    0.0000
     atom:    8    charge:    0.8288    magn:    0.0007    constr:    0.0000
     atom:    9    charge:    0.8315    magn:    0.0009    constr:    0.0000
     atom:   10    charge:    0.8219    magn:    0.0064    constr:    0.0000
     atom:   11    charge:    0.8258    magn:    0.0004    constr:    0.0000
     atom:   12    charge:    0.8339    magn:    0.0010    constr:    0.0000
     atom:   13    charge:    0.8326    magn:   -0.0001    constr:    0.0000
     atom:   14    charge:    0.8304    magn:   -0.0001    constr:    0.0000
     atom:   15    charge:    0.8299    magn:    0.0006    constr:    0.0000
     atom:   16    charge:    0.8328    magn:    0.0046    constr:    0.0000
     atom:   17    charge:    0.8412    magn:    0.0153    constr:    0.0000
     atom:   18    charge:    0.8295    magn:    0.0132    constr:    0.0000
     atom:   19    charge:    0.8438    magn:    0.0072    constr:    0.0000
     atom:   20    charge:    0.8339    magn:    0.0010    constr:    0.0000
     atom:   21    charge:    0.8323    magn:    0.0008    constr:    0.0000
     atom:   22    charge:    0.8280    magn:    0.0001    constr:    0.0000
     atom:   23    charge:    0.8244    magn:    0.0003    constr:    0.0000
     atom:   24    charge:    0.8256    magn:    0.0079    constr:    0.0000
     atom:   25    charge:    1.6747    magn:    0.1732    constr:    0.0000
     atom:   26    charge:    0.8295    magn:    0.0132    constr:    0.0000
     atom:   27    charge:    0.8258    magn:    0.0004    constr:    0.0000
     atom:   28    charge:    0.8296    magn:    0.0000    constr:    0.0000
     atom:   29    charge:    0.8276    magn:    0.0007    constr:    0.0000
     atom:   30    charge:    0.8289    magn:    0.0004    constr:    0.0000
     atom:   31    charge:    0.8294    magn:    0.0026    constr:    0.0000
     atom:   32    charge:    0.8255    magn:    0.0079    constr:    0.0000
     atom:   33    charge:    0.8412    magn:    0.0154    constr:    0.0000
     atom:   34    charge:    0.8219    magn:    0.0064    constr:    0.0000
     atom:   35    charge:    0.8268    magn:    0.0008    constr:    0.0000
     atom:   36    charge:    0.8254    magn:   -0.0000    constr:    0.0000
     atom:   37    charge:    0.8262    magn:    0.0000    constr:    0.0000
     atom:   38    charge:    0.8289    magn:    0.0004    constr:    0.0000
     atom:   39    charge:    0.8244    magn:    0.0003    constr:    0.0000
     atom:   40    charge:    0.8328    magn:    0.0046    constr:    0.0000
     atom:   41    charge:    0.8315    magn:    0.0009    constr:    0.0000
     atom:   42    charge:    0.8261    magn:    0.0013    constr:    0.0000
     atom:   43    charge:    0.8253    magn:    0.0011    constr:    0.0000
     atom:   44    charge:    0.8254    magn:   -0.0001    constr:    0.0000
     atom:   45    charge:    0.8276    magn:    0.0007    constr:    0.0000
     atom:   46    charge:    0.8280    magn:    0.0001    constr:    0.0000
     atom:   47    charge:    0.8299    magn:    0.0006    constr:    0.0000
     atom:   48    charge:    0.8288    magn:    0.0007    constr:    0.0000
     atom:   49    charge:    0.8307    magn:    0.0001    constr:    0.0000
     atom:   50    charge:    2.7472    magn:   -0.0004    constr:    0.0000
     atom:   51    charge:    2.7454    magn:   -0.0005    constr:    0.0000
     atom:   52    charge:    2.7373    magn:   -0.0019    constr:    0.0000
     atom:   53    charge:    2.7463    magn:   -0.0003    constr:    0.0000
     atom:   54    charge:    2.7467    magn:   -0.0004    constr:    0.0000
     atom:   55    charge:    2.7433    magn:    0.0003    constr:    0.0000
     atom:   56    charge:    2.7428    magn:    0.0002    constr:    0.0000
     atom:   57    charge:    2.7432    magn:    0.0017    constr:    0.0000
     atom:   58    charge:    2.7432    magn:    0.0006    constr:    0.0000
     atom:   59    charge:    2.7393    magn:   -0.0033    constr:    0.0000
     atom:   60    charge:    2.7311    magn:   -0.0044    constr:    0.0000
[...]
     atom:   84    charge:    2.7373    magn:   -0.0019    constr:    0.0000
     atom:   85    charge:    2.7428    magn:   -0.0005    constr:    0.0000
     atom:   86    charge:    2.7435    magn:    0.0001    constr:    0.0000
     atom:   87    charge:    2.7434    magn:   -0.0002    constr:    0.0000
     atom:   88    charge:    2.7428    magn:   -0.0003    constr:    0.0000
     atom:   89    charge:    2.7484    magn:    0.0012    constr:    0.0000
     atom:   90    charge:    2.7432    magn:    0.0006    constr:    0.0000
     atom:   91    charge:    2.7454    magn:   -0.0005    constr:    0.0000
     atom:   92    charge:    2.7486    magn:   -0.0002    constr:    0.0000
     atom:   93    charge:    2.7428    magn:   -0.0005    constr:    0.0000
     atom:   94    charge:    2.7454    magn:   -0.0003    constr:    0.0000
     atom:   95    charge:    2.7470    magn:   -0.0001    constr:    0.0000
     atom:   96    charge:    2.7490    magn:   -0.0003    constr:    0.0000
     atom:   97    charge:    2.7432    magn:    0.0017    constr:    0.0000
     atom:   98    charge:    2.7472    magn:   -0.0004    constr:    0.0000

     End of self-consistent calculation

 ------ SPIN UP ------------

[...]

 ------ SPIN DOWN ----------

          k = 0.0000 0.0000 0.0000 ( 77434 PWs)   bands (ev):

   -21.7257 -21.4397 -21.3681 -21.3663 -21.3477 -21.3154 -21.2109 -20.7703
   -20.6336 -20.6270 -20.6074 -20.5348 -20.5123 -20.3837 -20.2736 -20.2709
   -20.2508 -20.1303 -20.0714 -19.5235 -19.3812 -19.3745 -19.3744 -19.3627
   -19.3607 -19.3550 -19.3529 -19.3340 -19.2986 -19.1469 -19.1407 -19.0092
   -18.9623 -18.9532 -18.9287 -18.7618 -18.7416 -18.5249 -18.5195 -18.5138
   -18.4987 -18.4359 -18.4330 -18.3761 -18.3607 -18.3242 -18.3175 -16.8919
   -15.0361 -13.0106 -12.7451 -12.7447 -12.7337 -12.7020 -12.6919 -12.6366
   -12.5394 -12.5085 -12.5079 -12.4635 -12.3989 -12.1181 -12.0520 -12.0354
   -12.0207 -11.9591 -11.9424 -11.4979 -11.3868 -11.3844 -11.3688 -11.3647
   -11.3608 -11.3527 -11.3518 -11.3009 -11.2761 -11.0923 -11.0457 -10.8371
   -10.7017 -10.6924 -10.6640 -10.6565 -10.5042 -10.0425 -10.0245  -9.9802
    -9.9105  -9.8584  -9.8103  -9.3596  -9.3127  -9.2846  -9.2760  -9.2604
    -9.2582  -9.2195  -9.0094  -8.9091  -8.9020  -8.8841  -8.8818  -8.8757
    -8.8685  -8.8455  -8.8360  -8.8236  -8.8105  -8.8052  -8.7993  -8.7990
    -8.7986  -8.7944  -8.7706  -8.7554  -8.7193  -8.6595  -8.6430  -8.6189
    -8.4617  -8.4553  -8.1837  -8.1825  -8.1624  -8.1185  -8.0706  -7.8866
    -7.8143  -7.8016  -7.7951  -7.7740  -7.7091  -7.6785  -7.5243  -7.4843
    -7.4827  -7.4402  -7.4251  -7.4225  -7.4009  -7.3806  -7.3637  -7.3369
    -7.3152  -7.3121  -7.2986  -7.2915  -7.1987  -7.1943  -7.1685  -7.0399
    -7.0106  -6.9963  -6.9412  -6.8078  -6.6638  -6.5584  -6.1679  -6.1615
    -6.1343  -6.1157  -6.1142  -6.0466  -6.0421  -6.0399  -6.0279  -6.0253
    -6.0199  -6.0197  -6.0047  -5.9652  -5.8408  -5.8221  -5.7873  -5.7180
    -5.4762  -5.4337  -5.4233  -5.4068  -5.3105  -5.2313  -5.1896  -5.1431
    -4.7620  -4.7526  -4.7417  -4.7415  -4.6674  -4.6347  -4.5281  -4.5107
    -4.4750  -4.4681  -4.2443  -3.4446   0.1888   0.4405   0.7124   0.7339
     0.7419   0.7476   0.7617   0.7787   0.7965   0.8188   0.8201   0.8218
     0.8259   0.8424   0.8490   0.8826   0.8962   0.9204   0.9497   0.9516
     1.0131   1.1771   1.2525   1.2646   1.2867   1.3023   1.3153   1.3284
     1.3290   1.3319   1.3499   1.3499   1.4019   1.4391   1.4394   1.4408
     1.4505   1.4531   1.4796   1.8877   2.1057   2.1067   2.1161   2.1290
     2.1353   2.1504   2.1951   2.2106   2.3245

     highest occupied, lowest unoccupied level (ev):    -4.2443   -3.5485

!    total energy              =   -1940.22694344 Ry
     Harris-Foulkes estimate   =   -1940.22694344 Ry
     estimated scf accuracy    <          5.8E-09 Ry

     total all-electron energy =     -7770.051420 Ry

     The total energy is the sum of the following terms:

     one-electron contribution =  -10647.79252383 Ry
     hartree contribution      =    5409.62429782 Ry
     xc contribution           =    -430.71298328 Ry
     ewald contribution        =    4372.10078485 Ry
     DFT-D3 Dispersion         =      -0.27019579 Ry
     one-center paw contrib.   =    -643.17632321 Ry

     total magnetization       =     1.00 Bohr mag/cell
     absolute magnetization    =     1.21 Bohr mag/cell

     convergence has been achieved in  16 iterations

     negative rho (up, down):  4.822E-01 8.682E-03

     Forces acting on atoms (cartesian axes, Ry/au):

     atom    1 type  1   force =     0.00018252   -0.00035284    0.00000000
     atom    2 type  1   force =     0.00001160   -0.00024567    0.00000000
     atom    3 type  1   force =    -0.00024084    0.00009898    0.00000000
     atom    4 type  1   force =    -0.00029081    0.00061119    0.00000000
     atom    5 type  1   force =     0.00011914    0.00001920    0.00000000
     atom    6 type  1   force =    -0.00003705    0.00012132    0.00000000
     atom    7 type  1   force =    -0.00013318   -0.00005663    0.00000000
     atom    8 type  1   force =    -0.00013797    0.00025859    0.00000000
     atom    9 type  1   force =     0.00029542   -0.00008923    0.00000000
     atom   10 type  1   force =    -0.00013876    0.00005248    0.00000000
     atom   11 type  1   force =    -0.00051705    0.00013307    0.00000000
     atom   12 type  1   force =    -0.00016233    0.00043848    0.00000000
     atom   13 type  1   force =    -0.00022751    0.00012416    0.00000000
     atom   14 type  1   force =    -0.00012844   -0.00013297    0.00000000
     atom   15 type  1   force =    -0.00001655    0.00016081    0.00000000
     atom   16 type  1   force =     0.00020848    0.00018644    0.00000000
     atom   17 type  1   force =     0.00049409   -0.00021396    0.00000000
     atom   18 type  1   force =    -0.00027873    0.00019071    0.00000000
     atom   19 type  1   force =    -0.00020970    0.00023694    0.00000000
     atom   20 type  1   force =    -0.00030544   -0.00006992    0.00000000
     atom   21 type  1   force =     0.00015584   -0.00017179    0.00000000
     atom   22 type  1   force =     0.00024083   -0.00041994    0.00000000
     atom   23 type  1   force =     0.00009843    0.00052254    0.00000000
     atom   24 type  1   force =     0.00009474    0.00018786    0.00000000
     atom   25 type  4   force =    -0.00070049   -0.00086207    0.00000000
     atom   26 type  1   force =     0.00017420    0.00012299    0.00000000
     atom   27 type  1   force =    -0.00021986    0.00043859    0.00000000
     atom   28 type  1   force =    -0.00049867   -0.00014054    0.00000000
     atom   29 type  1   force =     0.00026836   -0.00035980    0.00000000
     atom   30 type  1   force =     0.00030035   -0.00034744    0.00000000
     atom   31 type  1   force =    -0.00017390    0.00004272    0.00000000
     atom   32 type  1   force =    -0.00009576   -0.00012233    0.00000000
     atom   33 type  1   force =    -0.00003593   -0.00041267    0.00000000
     atom   34 type  1   force =    -0.00011362    0.00006580    0.00000000
     atom   35 type  1   force =    -0.00015923    0.00003121    0.00000000
     atom   36 type  1   force =     0.00000091   -0.00025234    0.00000000
     atom   37 type  1   force =     0.00048872   -0.00034005    0.00000000
     atom   38 type  1   force =     0.00039952   -0.00010899    0.00000000
     atom   39 type  1   force =    -0.00040722   -0.00024627    0.00000000
     atom   40 type  1   force =    -0.00023068   -0.00023055    0.00000000
     atom   41 type  1   force =     0.00010353   -0.00023620    0.00000000
     atom   42 type  1   force =     0.00014051   -0.00006617    0.00000000
     atom   43 type  1   force =     0.00006826   -0.00019670    0.00000000
     atom   44 type  1   force =     0.00008635   -0.00000607    0.00000000
     atom   45 type  1   force =     0.00031012   -0.00005399    0.00000000
     atom   46 type  1   force =     0.00039886    0.00008464    0.00000000
     atom   47 type  1   force =    -0.00021959   -0.00001139    0.00000000
     atom   48 type  1   force =    -0.00043305   -0.00007242    0.00000000
     atom   49 type  1   force =     0.00024547   -0.00020129    0.00000000
     atom   50 type  2   force =     0.00010563    0.00028562    0.00000000
     atom   51 type  2   force =     0.00011466    0.00010232    0.00000000
     atom   52 type  2   force =    -0.00026735    0.00008432    0.00000000
     atom   53 type  2   force =    -0.00006267    0.00013787    0.00000000
     atom   54 type  2   force =     0.00066350    0.00001097    0.00000000
     atom   55 type  2   force =    -0.00020358   -0.00012271    0.00000000
     atom   56 type  2   force =    -0.00039929    0.00030222    0.00000000
     atom   57 type  2   force =    -0.00039630    0.00041061    0.00000000
     atom   58 type  2   force =     0.00004416    0.00019916    0.00000000
     atom   59 type  2   force =    -0.00022763   -0.00011711    0.00000000
     atom   60 type  2   force =    -0.00081026    0.00012452    0.00000000
[...]
     atom   84 type  2   force =    -0.00018617    0.00030571    0.00000000
     atom   85 type  2   force =     0.00003669   -0.00012819    0.00000000
     atom   86 type  2   force =     0.00036468   -0.00008602    0.00000000
     atom   87 type  2   force =     0.00004807    0.00009188    0.00000000
     atom   88 type  2   force =     0.00014255    0.00000563    0.00000000
     atom   89 type  2   force =     0.00021165   -0.00007219    0.00000000
     atom   90 type  2   force =     0.00000471   -0.00014796    0.00000000
     atom   91 type  2   force =     0.00010957   -0.00001941    0.00000000
     atom   92 type  2   force =     0.00015676    0.00008061    0.00000000
     atom   93 type  2   force =     0.00026229    0.00023546    0.00000000
     atom   94 type  2   force =     0.00063895    0.00023623    0.00000000
     atom   95 type  2   force =     0.00052097   -0.00014633    0.00000000
     atom   96 type  2   force =    -0.00017165   -0.00009671    0.00000000
     atom   97 type  2   force =    -0.00044774    0.00011994    0.00000000
     atom   98 type  2   force =    -0.00005304   -0.00009417    0.00000000

     Total force =     0.004019     Total SCF correction =     0.000117

     Computing stress (Cartesian axis) and pressure

     negative rho (up, down):  4.822E-01 8.682E-03
          total   stress  (Ry/bohr**3)                   (kbar)     P=   -0.13
   0.00000036  -0.00000005   0.00000000          0.05     -0.01      0.00
  -0.00000005   0.00000041   0.00000000         -0.01      0.06      0.00
   0.00000000   0.00000000  -0.00000335          0.00      0.00     -0.49

     Writing output data file C2Cn.save/

     General routines

     Parallel routines

   This run was terminated on:   1:49:55   9Jun2021

   JOB DONE.