     Program PWSCF v.6.4.1 starts on 21Sep2021 at 17:58:34

     R & G space division:  proc/nbgrp/npool/nimage =      64
     Waiting for input...
     Reading input from standard input

     Current dimensions of program PWSCF are:
     Max number of different atomic species (ntypx) = 10
     Max number of k-points (npk) =  40000
     Max angular momentum in pseudopotentials (lmaxx) =  3

     IMPORTANT: XC functional enforced from input :
     Exchange-correlation      = HSE ( 1  4 12  4 0 0)
     EXX-fraction              =        0.25
     Any further DFT definition will be discarded
     Please, verify this is what you really want

               file N.pbe-n-kjpaw_psl.1.0.0.UPF: wavefunction(s)  2S renormalized
               file C.pbe-n-kjpaw_psl.1.0.0.UPF: wavefunction(s)  2S 2P renormalized
               file C.pbe-n-kjpaw_psl.1.0.0.UPF: wavefunction(s)  2S 2P renormalized
               file C.pbe-n-kjpaw_psl.1.0.0.UPF: wavefunction(s)  2S 2P renormalized
     EXX fraction changed:   0.32
     EXX Screening parameter changed:    0.0455000

     Parameters for DFT-D3 Dispersion Correction:
       Reference C6 values for interpolation:

         atom   Coordination number   C6
         B          0.000           214.36
         B          0.971           150.74
         B          1.944           106.23
         B          2.913            62.89
         B          4.586            56.06
         C1         0.000            98.23
         C1         0.987            86.49
         C1         1.998            58.72
         C1         2.999            51.56
         C1         3.984            36.41
         C2         0.000            98.23
         C2         0.987            86.49
         C2         1.998            58.72
         C2         2.999            51.56
         C2         3.984            36.41
         C3         0.000            98.23
         C3         0.987            86.49
         C3         1.998            58.72
         C3         2.999            51.56
         C3         3.984            36.41
         N          0.000            50.54
         N          0.994            44.25
         N          2.014            39.35
         N          2.990            31.16

       Values used:

         atom   Coordination number  R0_AB[au]  C6      C8
         B          3.325            3.039     62.90   2506.24
         B          3.317            3.039     62.90   2506.44
         B          3.317            3.039     62.90   2506.43
         B          3.325            3.039     62.90   2506.25
         B          3.327            3.039     62.90   2506.21
         B          3.324            3.039     62.90   2506.27
         B          3.326            3.039     62.90   2506.22
         B          3.325            3.039     62.90   2506.26
         B          3.323            3.039     62.90   2506.30
         B          3.303            3.039     62.91   2506.76
         B          3.322            3.039     62.90   2506.33
         B          3.329            3.039     62.90   2506.15
         B          3.325            3.039     62.90   2506.24
         B          3.324            3.039     62.90   2506.27
         B          3.325            3.039     62.90   2506.26
         B          3.327            3.039     62.90   2506.21
         B          3.297            3.039     62.91   2506.88
         B          3.297            3.039     62.91   2506.90
         B          3.336            3.039     62.89   2505.99
         B          3.329            3.039     62.90   2506.15
         B          3.327            3.039     62.90   2506.21
         B          3.323            3.039     62.90   2506.31
         B          3.319            3.039     62.90   2506.40
         B          3.314            3.039     62.90   2506.51
         C2         3.249            2.750     49.43   1429.56
         B          3.297            3.039     62.91   2506.90
         B          3.322            3.039     62.90   2506.33
         B          3.325            3.039     62.90   2506.25
         B          3.321            3.039     62.90   2506.36
         B          3.319            3.039     62.90   2506.39
         B          3.315            3.039     62.90   2506.50
         B          3.314            3.039     62.90   2506.51
         B          3.297            3.039     62.91   2506.88
         B          3.303            3.039     62.91   2506.76
         B          3.317            3.039     62.90   2506.43
         B          3.316            3.039     62.90   2506.45
         B          3.318            3.039     62.90   2506.42
         B          3.319            3.039     62.90   2506.39
         B          3.319            3.039     62.90   2506.40
         B          3.327            3.039     62.90   2506.21
         B          3.323            3.039     62.90   2506.30
         B          3.317            3.039     62.90   2506.44
         B          3.319            3.039     62.90   2506.40
         B          3.316            3.039     62.90   2506.45
         B          3.321            3.039     62.90   2506.36
         B          3.323            3.039     62.90   2506.31
         B          3.325            3.039     62.90   2506.26
         B          3.325            3.039     62.90   2506.26
         B          3.325            3.039     62.90   2506.24
         N          3.129            2.478     31.22    688.74
         N          3.128            2.478     31.22    688.75
         N          3.125            2.478     31.22    688.79
         N          3.128            2.478     31.22    688.75
         N          3.130            2.478     31.22    688.73
         N          3.129            2.478     31.22    688.75
         N          3.129            2.478     31.22    688.75
         N          3.129            2.478     31.22    688.75
         N          3.129            2.478     31.22    688.74
         N          3.124            2.478     31.22    688.79
         N          3.123            2.478     31.22    688.80
[...]
         N          3.125            2.478     31.22    688.79
         N          3.126            2.478     31.22    688.77
         N          3.126            2.478     31.22    688.77
         N          3.127            2.478     31.22    688.76
         N          3.127            2.478     31.22    688.76
         N          3.129            2.478     31.22    688.74
         N          3.129            2.478     31.22    688.74
         N          3.128            2.478     31.22    688.75
         N          3.129            2.478     31.22    688.74
         N          3.126            2.478     31.22    688.77
         N          3.127            2.478     31.22    688.77
         N          3.129            2.478     31.22    688.75
         N          3.130            2.478     31.22    688.74
         N          3.129            2.478     31.22    688.75
         N          3.129            2.478     31.22    688.74

         Molecular C6 ( Ry / a.u.^6 ) =    437698.51

     gamma-point specific algorithms are used
     Message from routine setup :
     BEWARE: nonlinear core correction is not consistent with hybrid XC

     EXX: grid of k+q points same as grid of k-points

     bravais-lattice index     =            0
     lattice parameter (alat)  =      33.2346  a.u.
     unit-cell volume          =   36184.4017 (a.u.)^3
     number of atoms/cell      =           98
     number of atomic types    =            5
     number of electrons       =       391.00
     number of Kohn-Sham states=          245
     kinetic-energy cutoff     =      20.0000  Ry
     charge density cutoff     =      80.0000  Ry
     cutoff for Fock operator  =      80.0000  Ry
     convergence threshold     =      1.0E-06
     mixing beta               =       0.7000
     number of iterations used =            8  plain     mixing
     Exchange-correlation      = HSE ( 1  4 12  4 0 0)
     EXX-fraction              =        0.32

     celldm(1)=  33.234611  celldm(2)=   0.000000  celldm(3)=   0.000000
     celldm(4)=   0.000000  celldm(5)=   0.000000  celldm(6)=   0.000000

     crystal axes: (cart. coord. in units of alat)
               a(1) = (   1.000640  -0.000349   0.000000 )
               a(2) = (  -0.500622   0.866405   0.000000 )
               a(3) = (   0.000000   0.000000   1.137204 )

     reciprocal axes: (cart. coord. in units 2 pi/alat)
               b(1) = (  0.999562  0.577562  0.000000 )
               b(2) = (  0.000402  1.154427  0.000000 )
               b(3) = (  0.000000  0.000000  0.879350 )

     PseudoPot. # 1 for B  read from file:
     ./pseudo/B.pbe-n-kjpaw_psl.1.0.0.UPF
     MD5 check sum: 8c825a5969375aca5c2c6ad5945b3059
     Pseudo is Projector augmented-wave + core cor, Zval =  3.0
     Generated using "atomic" code by A. Dal Corso v.6.3
     Shape of augmentation charge: PSQ
     Using radial grid of 1059 points,  4 beta functions with:
                l(1) =   0
                l(2) =   0
                l(3) =   1
                l(4) =   1
     Q(r) pseudized with 0 coefficients

     PseudoPot. # 2 for N  read from file:
     ./pseudo/N.pbe-n-kjpaw_psl.1.0.0.UPF
     MD5 check sum: 14c48229446f9f2d411169a3abcbc3fa
     Pseudo is Projector augmented-wave + core cor, Zval =  5.0
     Generated using "atomic" code by A. Dal Corso v.6.3
     Shape of augmentation charge: PSQ
     Using radial grid of 1085 points,  4 beta functions with:
                l(1) =   0
                l(2) =   0
                l(3) =   1
                l(4) =   1
     Q(r) pseudized with 0 coefficients

     PseudoPot. # 3 for C  read from file:
     ./pseudo/C.pbe-n-kjpaw_psl.1.0.0.UPF
     MD5 check sum: 5f16ad9a65e90284d1d834d4ab3b0f7d
     Pseudo is Projector augmented-wave + core cor, Zval =  4.0
     Generated using "atomic" code by A. Dal Corso v.6.3
     Shape of augmentation charge: PSQ
     Using radial grid of 1073 points,  4 beta functions with:
                l(1) =   0
                l(2) =   0
                l(3) =   1
                l(4) =   1
     Q(r) pseudized with 0 coefficients

[...]

     PseudoPot. # 5 for C  read from file:
     ./pseudo/C.pbe-n-kjpaw_psl.1.0.0.UPF
     MD5 check sum: 5f16ad9a65e90284d1d834d4ab3b0f7d
     Pseudo is Projector augmented-wave + core cor, Zval =  4.0
     Generated using "atomic" code by A. Dal Corso v.6.3
     Shape of augmentation charge: PSQ
     Using radial grid of 1073 points,  4 beta functions with:
                l(1) =   0
                l(2) =   0
                l(3) =   1
                l(4) =   1
     Q(r) pseudized with 0 coefficients

     atomic species   valence    mass     pseudopotential
        B              3.00    10.00000     B ( 1.00)
        N              5.00    14.00000     N ( 1.00)
        C1             4.00    12.00000     C ( 1.00)
        C2             4.00    12.00000     C ( 1.00)
        C3             4.00    12.00000     C ( 1.00)

     Starting magnetic structure
     atomic species   magnetization
        B            0.000
        N            0.000
        C1           1.000
[...]
     atom:    2    charge:    0.8483    magn:    0.0003    constr:    0.0000
     atom:    3    charge:    0.8528    magn:    0.0008    constr:    0.0000
     atom:    4    charge:    0.8616    magn:   -0.0000    constr:    0.0000
     atom:    5    charge:    0.8582    magn:    0.0001    constr:    0.0000
     atom:    6    charge:    0.8523    magn:    0.0001    constr:    0.0000
     atom:    7    charge:    0.8626    magn:   -0.0000    constr:    0.0000
     atom:    8    charge:    0.8523    magn:    0.0001    constr:    0.0000
     atom:    9    charge:    0.8539    magn:   -0.0003    constr:    0.0000
     atom:   10    charge:    0.8457    magn:    0.0032    constr:    0.0000
     atom:   11    charge:    0.8486    magn:    0.0006    constr:    0.0000
     atom:   12    charge:    0.8550    magn:    0.0001    constr:    0.0000
     atom:   13    charge:    0.8553    magn:   -0.0000    constr:    0.0000
     atom:   14    charge:    0.8523    magn:    0.0001    constr:    0.0000
     atom:   15    charge:    0.8560    magn:   -0.0001    constr:    0.0000
     atom:   16    charge:    0.8543    magn:    0.0001    constr:    0.0000
     atom:   17    charge:    0.8624    magn:    0.0023    constr:    0.0000
     atom:   18    charge:    0.8580    magn:    0.0073    constr:    0.0000
     atom:   19    charge:    0.8619    magn:   -0.0004    constr:    0.0000
     atom:   20    charge:    0.8550    magn:    0.0001    constr:    0.0000
     atom:   21    charge:    0.8582    magn:    0.0001    constr:    0.0000
     atom:   22    charge:    0.8537    magn:    0.0001    constr:    0.0000
     atom:   23    charge:    0.8470    magn:    0.0003    constr:    0.0000
     atom:   24    charge:    0.8528    magn:   -0.0007    constr:    0.0000
     atom:   25    charge:    1.6084    magn:   -0.0241    constr:    0.0000
     atom:   26    charge:    0.8580    magn:    0.0074    constr:    0.0000
     atom:   27    charge:    0.8486    magn:    0.0006    constr:    0.0000
     atom:   28    charge:    0.8616    magn:   -0.0000    constr:    0.0000
     atom:   29    charge:    0.8541    magn:    0.0001    constr:    0.0000
     atom:   30    charge:    0.8539    magn:    0.0000    constr:    0.0000
     atom:   31    charge:    0.8541    magn:   -0.0003    constr:    0.0000
     atom:   32    charge:    0.8528    magn:   -0.0007    constr:    0.0000
     atom:   33    charge:    0.8624    magn:    0.0024    constr:    0.0000
     atom:   34    charge:    0.8457    magn:    0.0032    constr:    0.0000
     atom:   35    charge:    0.8528    magn:    0.0009    constr:    0.0000
     atom:   36    charge:    0.8503    magn:    0.0004    constr:    0.0000
     atom:   37    charge:    0.8486    magn:   -0.0000    constr:    0.0000
     atom:   38    charge:    0.8539    magn:    0.0000    constr:    0.0000
     atom:   39    charge:    0.8470    magn:    0.0003    constr:    0.0000
     atom:   40    charge:    0.8543    magn:    0.0001    constr:    0.0000
     atom:   41    charge:    0.8539    magn:   -0.0003    constr:    0.0000
     atom:   42    charge:    0.8483    magn:    0.0003    constr:    0.0000
     atom:   43    charge:    0.8492    magn:   -0.0000    constr:    0.0000
     atom:   44    charge:    0.8503    magn:    0.0004    constr:    0.0000
     atom:   45    charge:    0.8541    magn:    0.0001    constr:    0.0000
     atom:   46    charge:    0.8537    magn:    0.0001    constr:    0.0000
     atom:   47    charge:    0.8560    magn:   -0.0001    constr:    0.0000
     atom:   48    charge:    0.8523    magn:    0.0001    constr:    0.0000
     atom:   49    charge:    0.8613    magn:   -0.0000    constr:    0.0000
     atom:   50    charge:    2.7187    magn:    0.0005    constr:    0.0000
     atom:   51    charge:    2.7038    magn:   -0.0002    constr:    0.0000
     atom:   52    charge:    2.6960    magn:    0.0031    constr:    0.0000
     atom:   53    charge:    2.7060    magn:    0.0000    constr:    0.0000
     atom:   54    charge:    2.7118    magn:    0.0001    constr:    0.0000
     atom:   55    charge:    2.7014    magn:   -0.0000    constr:    0.0000
     atom:   56    charge:    2.7027    magn:   -0.0001    constr:    0.0000
     atom:   57    charge:    2.7095    magn:    0.0003    constr:    0.0000
     atom:   58    charge:    2.7016    magn:    0.0042    constr:    0.0000
     atom:   59    charge:    2.6993    magn:    0.0064    constr:    0.0000
     atom:   60    charge:    2.6929    magn:    0.0127    constr:    0.0000
[...]
     atom:   84    charge:    2.6960    magn:    0.0031    constr:    0.0000
     atom:   85    charge:    2.7054    magn:    0.0004    constr:    0.0000
     atom:   86    charge:    2.7140    magn:   -0.0001    constr:    0.0000
     atom:   87    charge:    2.6980    magn:   -0.0000    constr:    0.0000
     atom:   88    charge:    2.6988    magn:    0.0002    constr:    0.0000
     atom:   89    charge:    2.7186    magn:    0.0003    constr:    0.0000
     atom:   90    charge:    2.7016    magn:    0.0042    constr:    0.0000
     atom:   91    charge:    2.7038    magn:   -0.0002    constr:    0.0000
     atom:   92    charge:    2.7196    magn:   -0.0001    constr:    0.0000
     atom:   93    charge:    2.7053    magn:    0.0004    constr:    0.0000
     atom:   94    charge:    2.7096    magn:    0.0000    constr:    0.0000
     atom:   95    charge:    2.7224    magn:   -0.0000    constr:    0.0000
     atom:   96    charge:    2.7130    magn:   -0.0000    constr:    0.0000
     atom:   97    charge:    2.7095    magn:    0.0003    constr:    0.0000
     atom:   98    charge:    2.7187    magn:    0.0005    constr:    0.0000

     End of self-consistent calculation

 ------ SPIN UP ------------

          k = 0.0000 0.0000 0.0000 ( 27344 PWs)   bands (ev):

[...]

 ------ SPIN DOWN ----------

[...]

     highest occupied, lowest unoccupied level (ev):    -3.6668   -3.0282

!    total energy              =   -1931.11212699 Ry
     Harris-Foulkes estimate   =   -1931.11212711 Ry
     estimated scf accuracy    <       0.00000042 Ry

[...]

     convergence has been achieved in  12 iterations

     Using ACE for calculation of exact exchange

[...]

     EXX: now go back to refine exchange calculation

[...]

     total energy              =   -1706.31328062 Ry
     Harris-Foulkes estimate   =   -1706.31328451 Ry
     est. exchange err (dexx)  =       0.04309547 Ry
     - averaged Fock potential =     193.08331875 Ry
     + Fock energy (ACE)       =     -96.65262382 Ry

[...]

     total energy              =   -1706.32253911 Ry
     Harris-Foulkes estimate   =   -1706.32254047 Ry
     estimated scf accuracy    <       0.00000214 Ry

[...]

     iteration #  1     ecut=    20.00 Ry     beta= 0.70
     CG style diagonalization
     ethr =  5.49E-10,  avg # of iterations =  3.3

[...]

     total energy              =   -1706.32256286 Ry
     Harris-Foulkes estimate   =   -1706.32255955 Ry
     est. exchange err (dexx)  =       0.00000190 Ry
     - averaged Fock potential =     193.46601627 Ry
     + Fock energy (ACE)       =     -96.73407858 Ry

     EXX: now go back to refine exchange calculation

     Self-consistent Calculation

     iteration #  1     ecut=    20.00 Ry     beta= 0.70
     CG style diagonalization
     c_bands:  1 eigenvalues not converged
     ethr =  5.49E-10,  avg # of iterations =  3.8

     negative rho (up, down):  6.281E+00 4.575E-03

     Magnetic moment per site:
     atom:    1    charge:    0.8348    magn:   -0.0000    constr:    0.0000
     atom:    2    charge:    0.8213    magn:    0.0002    constr:    0.0000
     atom:    3    charge:    0.8260    magn:    0.0004    constr:    0.0000
     atom:    4    charge:    0.8351    magn:   -0.0000    constr:    0.0000
     atom:    5    charge:    0.8316    magn:    0.0000    constr:    0.0000
     atom:    6    charge:    0.8256    magn:    0.0000    constr:    0.0000
     atom:    7    charge:    0.8361    magn:   -0.0000    constr:    0.0000
     atom:    8    charge:    0.8257    magn:    0.0000    constr:    0.0000
     atom:    9    charge:    0.8270    magn:   -0.0003    constr:    0.0000
     atom:   10    charge:    0.8185    magn:    0.0023    constr:    0.0000
     atom:   11    charge:    0.8218    magn:    0.0003    constr:    0.0000
     atom:   12    charge:    0.8286    magn:    0.0000    constr:    0.0000
     atom:   13    charge:    0.8284    magn:   -0.0000    constr:    0.0000
     atom:   14    charge:    0.8256    magn:    0.0000    constr:    0.0000
     atom:   15    charge:    0.8295    magn:   -0.0001    constr:    0.0000
     atom:   16    charge:    0.8278    magn:   -0.0001    constr:    0.0000
     atom:   17    charge:    0.8377    magn:    0.0014    constr:    0.0000
     atom:   18    charge:    0.8329    magn:    0.0058    constr:    0.0000
     atom:   19    charge:    0.8357    magn:   -0.0004    constr:    0.0000
     atom:   20    charge:    0.8286    magn:    0.0000    constr:    0.0000
     atom:   21    charge:    0.8316    magn:    0.0000    constr:    0.0000
     atom:   22    charge:    0.8271    magn:    0.0000    constr:    0.0000
     atom:   23    charge:    0.8202    magn:    0.0001    constr:    0.0000
     atom:   24    charge:    0.8260    magn:   -0.0015    constr:    0.0000
     atom:   25    charge:    1.5691    magn:   -0.0510    constr:    0.0000
     atom:   26    charge:    0.8329    magn:    0.0058    constr:    0.0000
     atom:   27    charge:    0.8218    magn:    0.0003    constr:    0.0000
     atom:   28    charge:    0.8351    magn:   -0.0000    constr:    0.0000
     atom:   29    charge:    0.8275    magn:    0.0000    constr:    0.0000
     atom:   30    charge:    0.8270    magn:   -0.0000    constr:    0.0000
     atom:   31    charge:    0.8271    magn:   -0.0004    constr:    0.0000
     atom:   32    charge:    0.8260    magn:   -0.0015    constr:    0.0000
     atom:   33    charge:    0.8377    magn:    0.0014    constr:    0.0000
     atom:   34    charge:    0.8185    magn:    0.0023    constr:    0.0000
     atom:   35    charge:    0.8260    magn:    0.0004    constr:    0.0000
     atom:   36    charge:    0.8236    magn:    0.0001    constr:    0.0000
     atom:   37    charge:    0.8219    magn:   -0.0000    constr:    0.0000
     atom:   38    charge:    0.8270    magn:   -0.0000    constr:    0.0000
     atom:   39    charge:    0.8202    magn:    0.0001    constr:    0.0000
     atom:   40    charge:    0.8278    magn:   -0.0001    constr:    0.0000
     atom:   41    charge:    0.8270    magn:   -0.0003    constr:    0.0000
     atom:   42    charge:    0.8213    magn:    0.0002    constr:    0.0000
     atom:   43    charge:    0.8225    magn:   -0.0000    constr:    0.0000
     atom:   44    charge:    0.8236    magn:    0.0001    constr:    0.0000
     atom:   45    charge:    0.8275    magn:    0.0000    constr:    0.0000
     atom:   46    charge:    0.8271    magn:    0.0000    constr:    0.0000
     atom:   47    charge:    0.8295    magn:   -0.0001    constr:    0.0000
     atom:   48    charge:    0.8257    magn:    0.0000    constr:    0.0000
     atom:   49    charge:    0.8348    magn:   -0.0000    constr:    0.0000
     atom:   50    charge:    2.6984    magn:    0.0003    constr:    0.0000
     atom:   51    charge:    2.6835    magn:   -0.0001    constr:    0.0000
     atom:   52    charge:    2.6757    magn:    0.0018    constr:    0.0000
     atom:   53    charge:    2.6856    magn:    0.0000    constr:    0.0000
     atom:   54    charge:    2.6915    magn:    0.0001    constr:    0.0000
     atom:   55    charge:    2.6811    magn:    0.0000    constr:    0.0000
     atom:   56    charge:    2.6823    magn:   -0.0000    constr:    0.0000
     atom:   57    charge:    2.6890    magn:    0.0002    constr:    0.0000
     atom:   58    charge:    2.6812    magn:    0.0029    constr:    0.0000
     atom:   59    charge:    2.6789    magn:    0.0062    constr:    0.0000
     atom:   60    charge:    2.6725    magn:    0.0103    constr:    0.0000
[...]
     atom:   84    charge:    2.6757    magn:    0.0018    constr:    0.0000
     atom:   85    charge:    2.6847    magn:    0.0002    constr:    0.0000
     atom:   86    charge:    2.6933    magn:   -0.0001    constr:    0.0000
     atom:   87    charge:    2.6775    magn:   -0.0000    constr:    0.0000
     atom:   88    charge:    2.6783    magn:    0.0001    constr:    0.0000
     atom:   89    charge:    2.6982    magn:    0.0003    constr:    0.0000
     atom:   90    charge:    2.6812    magn:    0.0029    constr:    0.0000
     atom:   91    charge:    2.6835    magn:   -0.0001    constr:    0.0000
     atom:   92    charge:    2.6993    magn:   -0.0000    constr:    0.0000
     atom:   93    charge:    2.6847    magn:    0.0002    constr:    0.0000
     atom:   94    charge:    2.6891    magn:    0.0000    constr:    0.0000
     atom:   95    charge:    2.7021    magn:   -0.0000    constr:    0.0000
     atom:   96    charge:    2.6926    magn:   -0.0000    constr:    0.0000
     atom:   97    charge:    2.6890    magn:    0.0002    constr:    0.0000
     atom:   98    charge:    2.6984    magn:    0.0003    constr:    0.0000

     End of self-consistent calculation

 ------ SPIN UP ------------

[...]

 ------ SPIN DOWN ----------

          k = 0.0000 0.0000 0.0000 ( 27344 PWs)   bands (ev):

   -25.6760 -25.4507 -25.2564 -25.2498 -25.2286 -25.1679 -25.1124 -24.6706
   -24.4554 -24.4401 -24.4343 -24.3466 -24.3323 -24.2061 -24.0680 -24.0589
   -24.0466 -23.8924 -23.8782 -23.3109 -23.1128 -23.1120 -23.1069 -23.0948
   -23.0911 -23.0850 -23.0836 -23.0492 -23.0425 -22.8692 -22.8661 -22.7300
   -22.6772 -22.6764 -22.6545 -22.4641 -22.4566 -22.2310 -22.2208 -22.2098
   -22.2006 -22.1314 -22.1123 -22.0553 -22.0324 -22.0296 -22.0188 -20.1821
   -17.6569 -15.5828 -15.1796 -15.1730 -15.1618 -15.1278 -15.1203 -15.0537
   -14.9734 -14.9410 -14.9382 -14.8702 -14.8175 -14.5491 -14.4728 -14.4646
   -14.4303 -14.3674 -14.3462 -13.8719 -13.7351 -13.7197 -13.7020 -13.6923
   -13.6836 -13.6747 -13.6718 -13.6318 -13.6084 -13.3749 -13.3172 -13.1168
   -12.9178 -12.9054 -12.8767 -12.8676 -12.6964 -12.2367 -12.2110 -12.1738
   -12.0893 -12.0266 -11.9611 -11.5068 -11.4291 -11.4030 -11.3740 -11.3708
   -11.3379 -11.3085 -11.1143 -11.0031 -10.9876 -10.9677 -10.9533 -10.9387
   -10.9383 -10.9180 -10.8921 -10.8639 -10.8626 -10.8543 -10.8492 -10.8208
   -10.7858 -10.7745 -10.7688 -10.7524 -10.6942 -10.6927 -10.6792 -10.5639
   -10.4935 -10.4750 -10.2074 -10.2029 -10.2015 -10.1352 -10.0895  -9.8263
    -9.7193  -9.6125  -9.6004  -9.5889  -9.4888  -9.4677  -9.4534  -9.3992
    -9.3972  -9.3650  -9.3468  -9.3393  -9.3158  -9.3098  -9.2656  -9.1725
    -9.1699  -9.0997  -9.0422  -9.0388  -9.0266  -8.8855  -8.8661  -8.8547
    -8.8523  -8.8362  -8.7888  -8.6185  -8.4429  -8.3017  -7.9007  -7.8781
    -7.8718  -7.8129  -7.7552  -7.5608  -7.5531  -7.5518  -7.5418  -7.5380
    -7.5281  -7.5140  -7.4875  -7.4796  -7.4784  -7.3636  -7.2703  -7.2176
    -6.9294  -6.8567  -6.8489  -6.8331  -6.7101  -6.7089  -6.6357  -6.5529
    -6.0999  -6.0814  -6.0613  -6.0590  -5.9347  -5.9288  -5.8035  -5.7610
    -5.7568  -5.7483  -5.2182  -2.2054  -0.7265  -0.3950  -0.1455  -0.0851
    -0.0788  -0.0769  -0.0732  -0.0727  -0.0527   0.2406   0.2449   0.2462
     0.2479   0.2527   0.2537   0.4991   0.5077   0.5085   0.5106   0.5108
     0.5326   0.8894   1.0315   1.2175   1.2192   1.2200   1.2215   1.2294
     1.2310   1.3156   1.5263   1.5272   1.5274   1.5281   1.5345   1.5348
     1.5522   1.5604   1.5608   1.5652   1.5659   1.6003   1.6026   1.6224
     1.6270   1.6589   1.6625   1.7527   1.8861

     highest occupied, lowest unoccupied level (ev):    -4.7581   -2.2054

!    total energy              =   -1706.32256358 Ry
     Harris-Foulkes estimate   =   -1706.32256399 Ry
     estimated scf accuracy    <       0.00000035 Ry

     total magnetization       =     1.00 Bohr mag/cell
     absolute magnetization    =     1.48 Bohr mag/cell

     convergence has been achieved in   1 iterations

     Using ACE for calculation of exact exchange

!!   total energy              =   -1706.32256399 Ry
     Harris-Foulkes estimate   =   -1706.32256441 Ry
     est. exchange err (dexx)  =       0.00000041 Ry
     - averaged Fock potential =     193.46720286 Ry
     + Fock energy (ACE)       =     -96.73312469 Ry

     EXX self-consistency reached

     Writing output data file C2Cn.save/

     General routines

     Parallel routines

     EXX routines

     EXX+US  routines

     EXX+PAW routines

   This run was terminated on:   0: 9:59  22Sep2021

   JOB DONE.