     Program PWSCF v.6.4.1 starts on  5Jun2021 at 11:56:24

     R & G space division:  proc/nbgrp/npool/nimage =      16
     Waiting for input...
     Reading input from standard input

     Current dimensions of program PWSCF are:
     Max number of different atomic species (ntypx) = 10
     Max number of k-points (npk) =  40000
     Max angular momentum in pseudopotentials (lmaxx) =  3
               file N.pbe-n-kjpaw_psl.1.0.0.UPF: wavefunction(s)  2S renormalized

     Parameters for DFT-D3 Dispersion Correction:
       Reference C6 values for interpolation:

         atom   Coordination number   C6
         B          0.000           214.36
         B          0.971           150.74
         B          1.944           106.23
         B          2.913            62.89
         B          4.586            56.06
         N          0.000            50.54
         N          0.994            44.25
         N          2.014            39.35
         N          2.990            31.16

       Values used:

         atom   Coordination number  R0_AB[au]  C6      C8
         B          3.320            3.039     62.90   2506.37
         B          3.320            3.039     62.90   2506.37
         B          3.320            3.039     62.90   2506.37
         B          3.320            3.039     62.90   2506.37
         B          3.320            3.039     62.90   2506.37
         B          3.320            3.039     62.90   2506.37
         B          3.320            3.039     62.90   2506.37
         B          3.320            3.039     62.90   2506.37
         B          3.320            3.039     62.90   2506.37
         B          3.320            3.039     62.90   2506.37
         B          3.320            3.039     62.90   2506.37
         B          3.320            3.039     62.90   2506.37
         B          3.320            3.039     62.90   2506.37
         B          3.320            3.039     62.90   2506.37
         B          3.320            3.039     62.90   2506.37
         B          3.320            3.039     62.90   2506.37
         B          3.320            3.039     62.90   2506.37
         B          3.320            3.039     62.90   2506.37
         B          3.320            3.039     62.90   2506.37
         B          3.320            3.039     62.90   2506.37
         B          3.320            3.039     62.90   2506.37
         B          3.320            3.039     62.90   2506.37
         B          3.320            3.039     62.90   2506.37
         B          3.320            3.039     62.90   2506.37
         B          3.320            3.039     62.90   2506.37
         B          3.320            3.039     62.90   2506.37
         B          3.320            3.039     62.90   2506.37
         B          3.320            3.039     62.90   2506.37
         B          3.320            3.039     62.90   2506.37
         B          3.320            3.039     62.90   2506.37
         B          3.320            3.039     62.90   2506.37
         B          3.320            3.039     62.90   2506.37
         B          3.320            3.039     62.90   2506.37
         B          3.320            3.039     62.90   2506.37
         B          3.320            3.039     62.90   2506.37
         B          3.320            3.039     62.90   2506.37
         B          3.320            3.039     62.90   2506.37
         B          3.320            3.039     62.90   2506.37
         B          3.320            3.039     62.90   2506.37
         B          3.320            3.039     62.90   2506.37
         B          3.320            3.039     62.90   2506.37
         B          3.320            3.039     62.90   2506.37
         B          3.320            3.039     62.90   2506.37
         B          3.320            3.039     62.90   2506.37
         B          3.320            3.039     62.90   2506.37
         B          3.320            3.039     62.90   2506.37
         B          3.320            3.039     62.90   2506.37
         B          3.320            3.039     62.90   2506.37
         B          3.320            3.039     62.90   2506.37
         N          3.127            2.478     31.22    688.76
         N          3.127            2.478     31.22    688.76
         N          3.127            2.478     31.22    688.76
         N          3.127            2.478     31.22    688.76
         N          3.127            2.478     31.22    688.76
         N          3.127            2.478     31.22    688.76
         N          3.127            2.478     31.22    688.76
         N          3.127            2.478     31.22    688.76
         N          3.127            2.478     31.22    688.76
         N          3.127            2.478     31.22    688.76
         N          3.127            2.478     31.22    688.76
[...]
         N          3.127            2.478     31.22    688.76
         N          3.127            2.478     31.22    688.76
         N          3.127            2.478     31.22    688.76
         N          3.127            2.478     31.22    688.76
         N          3.127            2.478     31.22    688.76
         N          3.127            2.478     31.22    688.76
         N          3.127            2.478     31.22    688.76
         N          3.127            2.478     31.22    688.76
         N          3.127            2.478     31.22    688.76
         N          3.127            2.478     31.22    688.76
         N          3.127            2.478     31.22    688.76
         N          3.127            2.478     31.22    688.76
         N          3.127            2.478     31.22    688.76
         N          3.127            2.478     31.22    688.76
         N          3.127            2.478     31.22    688.76

         Molecular C6 ( Ry / a.u.^6 ) =    434817.80

     gamma-point specific algorithms are used

     Found symmetry operation: I + ( -0.0000  0.1429  0.0000)
     This is a supercell, fractional translations are disabled

     bravais-lattice index     =            4
     lattice parameter (alat)  =      33.2346  a.u.
     unit-cell volume          =   36152.6937 (a.u.)^3
     number of atoms/cell      =           98
     number of atomic types    =            2
     number of electrons       =       392.00
     number of Kohn-Sham states=          196
     kinetic-energy cutoff     =      40.0000  Ry
     charge density cutoff     =     500.0000  Ry
     convergence threshold     =      1.0E-06
     mixing beta               =       0.7000
     number of iterations used =            8  plain     mixing
     Exchange-correlation      = SLA PW PBX PBC ( 1  4  3  4 0 0)
     nstep                     =           50

     celldm(1)=  33.234611  celldm(2)=   0.000000  celldm(3)=   1.137204
     celldm(4)=   0.000000  celldm(5)=   0.000000  celldm(6)=   0.000000

     crystal axes: (cart. coord. in units of alat)
               a(1) = (   1.000000   0.000000   0.000000 )
               a(2) = (  -0.500000   0.866025   0.000000 )
               a(3) = (   0.000000   0.000000   1.137204 )

     reciprocal axes: (cart. coord. in units 2 pi/alat)
               b(1) = (  1.000000  0.577350  0.000000 )
               b(2) = (  0.000000  1.154701  0.000000 )
               b(3) = (  0.000000  0.000000  0.879350 )

     PseudoPot. # 1 for B  read from file:
     ./pseudo/B.pbe-n-kjpaw_psl.1.0.0.UPF
     MD5 check sum: 8c825a5969375aca5c2c6ad5945b3059
     Pseudo is Projector augmented-wave + core cor, Zval =  3.0
     Generated using "atomic" code by A. Dal Corso v.6.3
     Shape of augmentation charge: PSQ
     Using radial grid of 1059 points,  4 beta functions with:
                l(1) =   0
                l(2) =   0
                l(3) =   1
                l(4) =   1
     Q(r) pseudized with 0 coefficients

     PseudoPot. # 2 for N  read from file:
     ./pseudo/N.pbe-n-kjpaw_psl.1.0.0.UPF
     MD5 check sum: 14c48229446f9f2d411169a3abcbc3fa
     Pseudo is Projector augmented-wave + core cor, Zval =  5.0
     Generated using "atomic" code by A. Dal Corso v.6.3
     Shape of augmentation charge: PSQ
     Using radial grid of 1085 points,  4 beta functions with:
                l(1) =   0
                l(2) =   0
                l(3) =   1
                l(4) =   1
     Q(r) pseudized with 0 coefficients

     atomic species   valence    mass     pseudopotential
        B              3.00    10.00000     B ( 1.00)
        N              5.00    14.00000     N ( 1.00)

     12 Sym. Ops. (no inversion) found

   Cartesian axes

     site n.     atom                  positions (alat units)
         1           B   tau(   1) = (   0.0000000   0.0824785   0.5686018  )
         2           B   tau(   2) = (  -0.0714285   0.2061963   0.5686018  )
         3           B   tau(   3) = (  -0.1428570   0.3299141   0.5686018  )
         4           B   tau(   4) = (  -0.2142860   0.4536328   0.5686018  )
         5           B   tau(   5) = (  -0.2857145   0.5773506   0.5686018  )
         6           B   tau(   6) = (  -0.3571430   0.7010683   0.5686018  )
         7           B   tau(   7) = (  -0.4285715   0.8247861   0.5686018  )
         8           B   tau(   8) = (   0.1428570   0.0824785   0.5686018  )
         9           B   tau(   9) = (   0.0714285   0.2061963   0.5686018  )
        10           B   tau(  10) = (   0.0000000   0.3299141   0.5686018  )
        11           B   tau(  11) = (  -0.0714290   0.4536328   0.5686018  )
        12           B   tau(  12) = (  -0.1428575   0.5773506   0.5686018  )
        13           B   tau(  13) = (  -0.2142860   0.7010683   0.5686018  )
        14           B   tau(  14) = (  -0.2857145   0.8247861   0.5686018  )
        15           B   tau(  15) = (   0.2857140   0.0824785   0.5686018  )
        16           B   tau(  16) = (   0.2142855   0.2061963   0.5686018  )
        17           B   tau(  17) = (   0.1428570   0.3299141   0.5686018  )
        18           B   tau(  18) = (   0.0714280   0.4536328   0.5686018  )
        19           B   tau(  19) = (  -0.0000005   0.5773506   0.5686018  )
        20           B   tau(  20) = (  -0.0714290   0.7010683   0.5686018  )
        21           B   tau(  21) = (  -0.1428575   0.8247861   0.5686018  )
        22           B   tau(  22) = (   0.4285710   0.0824785   0.5686018  )
        23           B   tau(  23) = (   0.3571425   0.2061963   0.5686018  )
        24           B   tau(  24) = (   0.2857140   0.3299141   0.5686018  )
        25           B   tau(  25) = (   0.2142850   0.4536328   0.5686018  )
        26           B   tau(  26) = (   0.1428565   0.5773506   0.5686018  )
        27           B   tau(  27) = (   0.0714280   0.7010683   0.5686018  )
        28           B   tau(  28) = (  -0.0000005   0.8247861   0.5686018  )
        29           B   tau(  29) = (   0.5714290   0.0824785   0.5686018  )
        30           B   tau(  30) = (   0.5000005   0.2061963   0.5686018  )
        31           B   tau(  31) = (   0.4285720   0.3299141   0.5686018  )
        32           B   tau(  32) = (   0.3571430   0.4536328   0.5686018  )
[...]
     Shape of augmentation charge: PSQ
     Using radial grid of 1059 points,  4 beta functions with:
                l(1) =   0
                l(2) =   0
                l(3) =   1
                l(4) =   1
     Q(r) pseudized with 0 coefficients

     PseudoPot. # 2 for N  read from file:
     ./pseudo/N.pbe-n-kjpaw_psl.1.0.0.UPF
     MD5 check sum: 14c48229446f9f2d411169a3abcbc3fa
     Pseudo is Projector augmented-wave + core cor, Zval =  5.0
     Generated using "atomic" code by A. Dal Corso v.6.3
     Shape of augmentation charge: PSQ
     Using radial grid of 1085 points,  4 beta functions with:
                l(1) =   0
                l(2) =   0
                l(3) =   1
                l(4) =   1
     Q(r) pseudized with 0 coefficients

     atomic species   valence    mass     pseudopotential
        B              3.00    10.00000     B ( 1.00)
        N              5.00    14.00000     N ( 1.00)

     12 Sym. Ops. (no inversion) found

   Cartesian axes

     site n.     atom                  positions (alat units)
         1           B   tau(   1) = (  -0.0000000   0.0824312   0.5686018  )
         2           B   tau(   2) = (  -0.0713835   0.2060646   0.5686018  )
         3           B   tau(   3) = (  -0.1427591   0.3296940   0.5686018  )
         4           B   tau(   4) = (  -0.2141425   0.4533388   0.5686018  )
         5           B   tau(   5) = (  -0.2855298   0.5769802   0.5686018  )
         6           B   tau(   6) = (  -0.3569083   0.7006080   0.5686018  )
         7           B   tau(   7) = (  -0.4282861   0.8242446   0.5686018  )
         8           B   tau(   8) = (   0.1427708   0.0824288   0.5686018  )
         9           B   tau(   9) = (   0.0713835   0.2060646   0.5686018  )
        10           B   tau(  10) = (  -0.0000000   0.3296987   0.5686018  )
        11           B   tau(  11) = (  -0.0713761   0.4533390   0.5686018  )
        12           B   tau(  12) = (  -0.1427591   0.5769780   0.5686018  )
        13           B   tau(  13) = (  -0.2141463   0.7006109   0.5686018  )
        14           B   tau(  14) = (  -0.2855248   0.8242478   0.5686018  )
        15           B   tau(  15) = (   0.2855246   0.0824274   0.5686018  )
        16           B   tau(  16) = (   0.2141465   0.2060579   0.5686018  )
        17           B   tau(  17) = (   0.1427591   0.3296940   0.5686018  )
        18           B   tau(  18) = (   0.0713751   0.4533390   0.5686018  )
        19           B   tau(  19) = (  -0.0000005   0.5769737   0.5686018  )
        20           B   tau(  20) = (  -0.0713835   0.7006042   0.5686018  )
        21           B   tau(  21) = (  -0.1427707   0.8242461   0.5686018  )
        22           B   tau(  22) = (   0.4282860   0.0824302   0.5686018  )
        23           B   tau(  23) = (   0.3569076   0.2060607   0.5686018  )
        24           B   tau(  24) = (   0.2855296   0.3296914   0.5686018  )
        25           B   tau(  25) = (   0.2141415   0.4533388   0.5686018  )
        26           B   tau(  26) = (   0.1427581   0.5769780   0.5686018  )
        27           B   tau(  27) = (   0.0713825   0.7006042   0.5686018  )
        28           B   tau(  28) = (  -0.0000005   0.8242437   0.5686018  )
        29           B   tau(  29) = (   0.5710614   0.0824302   0.5686018  )
        30           B   tau(  30) = (   0.4996742   0.2060657   0.5686018  )
        31           B   tau(  31) = (   0.4282957   0.3296968   0.5686018  )
        32           B   tau(  32) = (   0.3569173   0.4533385   0.5686018  )
        33           B   tau(  33) = (   0.2855298   0.5769802   0.5686018  )
        34           B   tau(  34) = (   0.2141463   0.7006109   0.5686018  )
        35           B   tau(  35) = (   0.1427707   0.8242461   0.5686018  )
        36           B   tau(  36) = (   0.7138228   0.0824274   0.5686018  )
        37           B   tau(  37) = (   0.6424397   0.2060607   0.5686018  )
        38           B   tau(  38) = (   0.5710526   0.3296968   0.5686018  )
        39           B   tau(  39) = (   0.4996737   0.4533387   0.5686018  )
        40           B   tau(  40) = (   0.4282956   0.5769750   0.5686018  )
        41           B   tau(  41) = (   0.3569083   0.7006080   0.5686018  )
        42           B   tau(  42) = (   0.2855248   0.8242478   0.5686018  )
        43           B   tau(  43) = (   0.8565765   0.0824288   0.5686018  )
        44           B   tau(  44) = (   0.7852008   0.2060579   0.5686018  )
        45           B   tau(  45) = (   0.7138177   0.3296914   0.5686018  )
        46           B   tau(  46) = (   0.6424300   0.4533385   0.5686018  )
        47           B   tau(  47) = (   0.5710518   0.5769750   0.5686018  )
        48           B   tau(  48) = (   0.4996737   0.7006027   0.5686018  )
        49           B   tau(  49) = (   0.4282861   0.8242446   0.5686018  )
        50           N   tau(  50) = (   0.0713879   0.0412158   0.5686018  )
        51           N   tau(  51) = (  -0.0000000   0.1648579   0.5686018  )
        52           N   tau(  52) = (  -0.0713780   0.2884850   0.5686018  )
        53           N   tau(  53) = (  -0.1427560   0.4121215   0.5686018  )
        54           N   tau(  54) = (  -0.2141439   0.5357691   0.5686018  )
        55           N   tau(  55) = (  -0.2855274   0.6594025   0.5686018  )
        56           N   tau(  56) = (  -0.3569025   0.7830312   0.5686018  )
        57           N   tau(  57) = (   0.2141491   0.0412128   0.5686018  )
        58           N   tau(  58) = (   0.1427659   0.1648522   0.5686018  )
        59           N   tau(  59) = (   0.0713780   0.2884850   0.5686018  )
        60           N   tau(  60) = (  -0.0000000   0.4121216   0.5686018  )
[...]
        84           N   tau(  84) = (   0.2141494   0.7830329   0.5686018  )
        85           N   tau(  85) = (   0.7851982   0.0412128   0.5686018  )
        86           N   tau(  86) = (   0.7138203   0.1648491   0.5686018  )
        87           N   tau(  87) = (   0.6424329   0.2884817   0.5686018  )
        88           N   tau(  88) = (   0.5710494   0.4121215   0.5686018  )
        89           N   tau(  89) = (   0.4996737   0.5357620   0.5686018  )
        90           N   tau(  90) = (   0.4282904   0.6593952   0.5686018  )
        91           N   tau(  91) = (   0.3569025   0.7830312   0.5686018  )
        92           N   tau(  92) = (   0.9279594   0.0412158   0.5686018  )
        93           N   tau(  93) = (   0.8565814   0.1648522   0.5686018  )
        94           N   tau(  94) = (   0.7852035   0.2884793   0.5686018  )
        95           N   tau(  95) = (   0.7138161   0.4121213   0.5686018  )
        96           N   tau(  96) = (   0.6424322   0.5357666   0.5686018  )
        97           N   tau(  97) = (   0.5710569   0.6593952   0.5686018  )
        98           N   tau(  98) = (   0.4996737   0.7830285   0.5686018  )

     number of k points=     1
                       cart. coord. in units 2pi/alat
        k(    1) = (   0.0000000   0.0000000   0.0000000), wk =   2.0000000

     Initial potential from superposition of free atoms

     starting charge  391.98580, renormalised to  392.00000

     negative rho (up, down):  4.265E-03 0.000E+00
     Starting wfcs are  392 randomized atomic wfcs
     Checking if some PAW data can be deallocated...

     Self-consistent Calculation

[...]

     total energy              =   -1953.56485370 Ry
     Harris-Foulkes estimate   =   -1953.56485372 Ry
     estimated scf accuracy    <       0.00000005 Ry

     iteration # 12     ecut=    40.00 Ry     beta= 0.70
     CG style diagonalization
     ethr =  1.19E-11,  avg # of iterations =  4.0

[...]

     End of self-consistent calculation

          k = 0.0000 0.0000 0.0000 ( 77079 PWs)   bands (ev):

   -21.7007 -21.3141 -21.3141 -21.3141 -21.3134 -21.3134 -21.3134 -20.5747
   -20.5747 -20.5747 -20.5747 -20.5747 -20.5747 -20.2324 -20.2321 -20.2320
   -20.2313 -20.2313 -20.2309 -19.3073 -19.3072 -19.3072 -19.3072 -19.3072
   -19.3072 -19.3070 -19.3070 -19.3070 -19.3070 -19.3070 -19.3070 -18.9113
   -18.9113 -18.9112 -18.9112 -18.9112 -18.9112 -18.4557 -18.4557 -18.4556
   -18.4556 -18.4549 -18.4549 -18.2916 -18.2916 -18.2915 -18.2915 -18.2914
   -18.2914 -12.6987 -12.6987 -12.6982 -12.6982 -12.6981 -12.6981 -12.4955
   -12.4955 -12.4955 -12.4955 -12.4955 -12.4954 -12.0077 -12.0077 -12.0076
   -12.0076 -12.0076 -12.0076 -11.3103 -11.3102 -11.3102 -11.3102 -11.3102
   -11.3102 -11.3098 -11.3098 -11.3098 -11.3098 -11.3097 -11.3097 -10.6484
   -10.6483 -10.6483 -10.6483 -10.6482 -10.6482  -9.9385  -9.9384  -9.9384
    -9.9382  -9.9382  -9.9381  -9.2820  -9.2358  -9.2358  -9.2358  -9.2358
    -9.2351  -9.2351  -8.8128  -8.8128  -8.8127  -8.8127  -8.8127  -8.8127
    -8.7682  -8.7682  -8.7682  -8.7682  -8.7681  -8.7681  -8.7673  -8.7673
    -8.7673  -8.7672  -8.7672  -8.7672  -8.7610  -8.7609  -8.7609  -8.7603
    -8.7603  -8.7603  -8.0941  -8.0941  -8.0941  -8.0940  -8.0940  -8.0940
    -7.7566  -7.7566  -7.7566  -7.7566  -7.7566  -7.7566  -7.4161  -7.4161
    -7.4161  -7.4161  -7.4161  -7.4161  -7.3101  -7.3100  -7.3100  -7.3099
    -7.3099  -7.3098  -7.2848  -7.2845  -7.2845  -7.2839  -7.2839  -7.2836
    -6.9170  -6.9170  -6.9169  -6.9168  -6.9168  -6.9167  -6.0944  -6.0944
    -6.0942  -6.0939  -6.0938  -6.0938  -5.9843  -5.9843  -5.9843  -5.9843
    -5.9843  -5.9843  -5.9842  -5.9842  -5.9842  -5.9842  -5.9842  -5.9842
    -5.4109  -5.4109  -5.3913  -5.3913  -5.3913  -5.3912  -5.3912  -5.3912
    -4.6938  -4.6938  -4.6935  -4.6935  -4.6932  -4.6932  -4.4492  -4.4492
    -4.4491  -4.4491  -4.4491  -4.4490

     highest occupied level (ev):    -4.4490

!    total energy              =   -1953.56485371 Ry
     Harris-Foulkes estimate   =   -1953.56485371 Ry
     estimated scf accuracy    <          9.7E-10 Ry

     total all-electron energy =     -7810.933982 Ry

     The total energy is the sum of the following terms:

     one-electron contribution =  -10743.03309554 Ry
     hartree contribution      =    5458.27640740 Ry
     xc contribution           =    -431.71246668 Ry
     ewald contribution        =    4409.00504649 Ry
     DFT-D3 Dispersion         =      -0.27035605 Ry
     one-center paw contrib.   =    -645.83038933 Ry

     convergence has been achieved in  12 iterations

     negative rho (up, down):  7.677E-03 0.000E+00

     Forces acting on atoms (cartesian axes, Ry/au):

     atom    1 type  1   force =    -0.00000000    0.00009824    0.00000000
     atom    2 type  1   force =    -0.00003393    0.00003059    0.00000000
     atom    3 type  1   force =     0.00005759   -0.00010161    0.00000000
     atom    4 type  1   force =     0.00003253    0.00001878    0.00000000
     atom    5 type  1   force =    -0.00005920    0.00010068   -0.00000000
     atom    6 type  1   force =     0.00000952   -0.00004468    0.00000000
     atom    7 type  1   force =     0.00008507   -0.00004912    0.00000000
     atom    8 type  1   force =     0.00012114    0.00006994    0.00000000
     atom    9 type  1   force =     0.00003393    0.00003059   -0.00000000
     atom   10 type  1   force =    -0.00000000   -0.00003378    0.00000000
     atom   11 type  1   force =     0.00008836    0.00002125    0.00000000
     atom   12 type  1   force =     0.00006258    0.00006590   -0.00000000
     atom   13 type  1   force =    -0.00002925    0.00001689   -0.00000000
     atom   14 type  1   force =     0.00004346    0.00001409    0.00000000
     atom   15 type  1   force =    -0.00004899    0.00005996   -0.00000000
     atom   16 type  1   force =     0.00002743   -0.00007241    0.00000000
     atom   17 type  1   force =    -0.00005759   -0.00010161   -0.00000000
     atom   18 type  1   force =    -0.00008836    0.00002125    0.00000000
     atom   19 type  1   force =     0.00000000    0.00000000    0.00000000
     atom   20 type  1   force =    -0.00002578   -0.00008715   -0.00000000
     atom   21 type  1   force =    -0.00011679    0.00000093    0.00000000
     atom   22 type  1   force =    -0.00009229    0.00010818   -0.00000000
     atom   23 type  1   force =    -0.00002823   -0.00001630   -0.00000000
     atom   24 type  1   force =     0.00004754   -0.00013402    0.00000000
     atom   25 type  1   force =    -0.00003253    0.00001878   -0.00000000
     atom   26 type  1   force =    -0.00006258    0.00006590    0.00000000
     atom   27 type  1   force =     0.00002578   -0.00008715    0.00000000
     atom   28 type  1   force =    -0.00000000   -0.00003756    0.00000000
     atom   29 type  1   force =     0.00009229    0.00010818    0.00000000
     atom   30 type  1   force =    -0.00000000    0.00007414    0.00000000
     atom   31 type  1   force =     0.00006421   -0.00003707    0.00000000
     atom   32 type  1   force =     0.00013983    0.00002584   -0.00000000
     atom   33 type  1   force =     0.00005920    0.00010068   -0.00000000
     atom   34 type  1   force =     0.00002925    0.00001689   -0.00000000
     atom   35 type  1   force =     0.00011679    0.00000093    0.00000000
     atom   36 type  1   force =     0.00004899    0.00005996    0.00000000
     atom   37 type  1   force =     0.00002823   -0.00001630    0.00000000
     atom   38 type  1   force =    -0.00006421   -0.00003707    0.00000000
     atom   39 type  1   force =     0.00000000    0.00003260    0.00000000
     atom   40 type  1   force =     0.00007642    0.00001245    0.00000000
     atom   41 type  1   force =    -0.00000952   -0.00004468    0.00000000
     atom   42 type  1   force =    -0.00004346    0.00001409    0.00000000
     atom   43 type  1   force =    -0.00012114    0.00006994    0.00000000
     atom   44 type  1   force =    -0.00002743   -0.00007241    0.00000000
     atom   45 type  1   force =    -0.00004754   -0.00013402    0.00000000
     atom   46 type  1   force =    -0.00013983    0.00002584    0.00000000
     atom   47 type  1   force =    -0.00007642    0.00001245    0.00000000
     atom   48 type  1   force =    -0.00000000   -0.00013989    0.00000000
     atom   49 type  1   force =    -0.00008507   -0.00004912    0.00000000
     atom   50 type  2   force =    -0.00011530   -0.00006657    0.00000000
     atom   51 type  2   force =    -0.00000000   -0.00015198    0.00000000
     atom   52 type  2   force =    -0.00006506    0.00004312    0.00000000
     atom   53 type  2   force =    -0.00013308    0.00005410    0.00000000
     atom   54 type  2   force =    -0.00001969   -0.00014230    0.00000000
     atom   55 type  2   force =     0.00000481   -0.00007791   -0.00000000
     atom   56 type  2   force =    -0.00013162    0.00007599    0.00000000
     atom   57 type  2   force =    -0.00006671   -0.00001818   -0.00000000
     atom   58 type  2   force =    -0.00004910   -0.00004868    0.00000000
     atom   59 type  2   force =     0.00006506    0.00004312   -0.00000000
     atom   60 type  2   force =     0.00000000    0.00005437    0.00000000
[...]
     atom   84 type  2   force =    -0.00006987    0.00003478    0.00000000
     atom   85 type  2   force =     0.00006671   -0.00001818    0.00000000
     atom   86 type  2   force =    -0.00000798    0.00000461    0.00000000
     atom   87 type  2   force =     0.00010389    0.00009298    0.00000000
     atom   88 type  2   force =     0.00013246    0.00004348    0.00000000
     atom   89 type  2   force =     0.00000000   -0.00000922   -0.00000000
     atom   90 type  2   force =     0.00001761    0.00006686   -0.00000000
     atom   91 type  2   force =     0.00013162    0.00007599    0.00000000
     atom   92 type  2   force =     0.00011530   -0.00006657   -0.00000000
     atom   93 type  2   force =     0.00004910   -0.00004868    0.00000000
     atom   94 type  2   force =    -0.00002390    0.00014881    0.00000000
     atom   95 type  2   force =     0.00008823    0.00005094    0.00000000
     atom   96 type  2   force =     0.00011693   -0.00009510    0.00000000
     atom   97 type  2   force =    -0.00001761    0.00006686   -0.00000000
     atom   98 type  2   force =     0.00000000    0.00013314   -0.00000000

     Total force =     0.001019     Total SCF correction =     0.000057

     Computing stress (Cartesian axis) and pressure

     negative rho (up, down):  7.677E-03 0.000E+00
          total   stress  (Ry/bohr**3)                   (kbar)     P=   -0.95
  -0.00000014  -0.00000000  -0.00000000         -0.02     -0.00     -0.00
  -0.00000000  -0.00000014  -0.00000000         -0.00     -0.02     -0.00
   0.00000000   0.00000000  -0.00001919          0.00      0.00     -2.82

     Writing output data file hBN.save/

     General routines

     Parallel routines

   This run was terminated on:  13:12: 6   5Jun2021

   JOB DONE.