     Program PWSCF v.6.4.1 starts on  2Jul2021 at 10:14:11

     R & G space division:  proc/nbgrp/npool/nimage =      64
     Waiting for input...
     Reading input from standard input

     Current dimensions of program PWSCF are:
     Max number of different atomic species (ntypx) = 10
     Max number of k-points (npk) =  40000
     Max angular momentum in pseudopotentials (lmaxx) =  3
               file N.pbe-n-kjpaw_psl.1.0.0.UPF: wavefunction(s)  2S renormalized
               file C.pbe-n-kjpaw_psl.1.0.0.UPF: wavefunction(s)  2S 2P renormalized
               file C.pbe-n-kjpaw_psl.1.0.0.UPF: wavefunction(s)  2S 2P renormalized
               file C.pbe-n-kjpaw_psl.1.0.0.UPF: wavefunction(s)  2S 2P renormalized

     Parameters for DFT-D3 Dispersion Correction:
       Reference C6 values for interpolation:

         atom   Coordination number   C6
         B          0.000           214.36
         B          0.971           150.74
         B          1.944           106.23
         B          2.913            62.89
         B          4.586            56.06
         C1         0.000            98.23
         C1         0.987            86.49
         C1         1.998            58.72
         C1         2.999            51.56
         C1         3.984            36.41
         C2         0.000            98.23
         C2         0.987            86.49
         C2         1.998            58.72
         C2         2.999            51.56
         C2         3.984            36.41
         C3         0.000            98.23
         C3         0.987            86.49
         C3         1.998            58.72
         C3         2.999            51.56
         C3         3.984            36.41
         N          0.000            50.54
         N          0.994            44.25
         N          2.014            39.35
         N          2.990            31.16

       Values used:

         atom   Coordination number  R0_AB[au]  C6      C8
         B          3.326            3.039     62.90   2506.23
         B          3.317            3.039     62.90   2506.44
         B          3.318            3.039     62.90   2506.42
         B          3.323            3.039     62.90   2506.30
         B          3.325            3.039     62.90   2506.25
         B          3.323            3.039     62.90   2506.30
         B          3.326            3.039     62.90   2506.24
         B          3.323            3.039     62.90   2506.30
         B          3.321            3.039     62.90   2506.35
         B          3.306            3.039     62.91   2506.68
         B          3.318            3.039     62.90   2506.41
         B          3.324            3.039     62.90   2506.27
         B          3.323            3.039     62.90   2506.31
         B          3.323            3.039     62.90   2506.30
         B          3.322            3.039     62.90   2506.31
         B          3.324            3.039     62.90   2506.29
         B          3.294            3.039     62.92   2506.96
         B          3.282            3.039     62.92   2507.23
         B          3.320            3.039     62.90   2506.38
         B          3.324            3.039     62.90   2506.27
         B          3.325            3.039     62.90   2506.25
         B          3.322            3.039     62.90   2506.33
         B          3.317            3.039     62.90   2506.44
         B          3.306            3.039     62.91   2506.69
         C2         3.241            2.750     49.55   1433.01
         B          3.282            3.039     62.92   2507.23
         B          3.318            3.039     62.90   2506.41
         B          3.323            3.039     62.90   2506.30
         B          3.320            3.039     62.90   2506.38
         B          3.317            3.039     62.90   2506.44
         B          3.308            3.039     62.91   2506.64
         B          3.306            3.039     62.91   2506.69
         B          3.294            3.039     62.92   2506.96
         B          3.306            3.039     62.91   2506.68
         B          3.318            3.039     62.90   2506.42
         B          3.316            3.039     62.90   2506.46
         B          3.317            3.039     62.90   2506.45
         B          3.317            3.039     62.90   2506.44
         B          3.317            3.039     62.90   2506.44
         B          3.324            3.039     62.90   2506.29
         B          3.321            3.039     62.90   2506.35
         B          3.317            3.039     62.90   2506.44
         B          3.319            3.039     62.90   2506.40
         B          3.316            3.039     62.90   2506.46
         B          3.320            3.039     62.90   2506.38
         B          3.322            3.039     62.90   2506.33
         B          3.322            3.039     62.90   2506.31
         B          3.323            3.039     62.90   2506.30
         B          3.326            3.039     62.90   2506.23
         N          3.129            2.478     31.22    688.74
         N          3.128            2.478     31.22    688.75
         N          3.126            2.478     31.22    688.78
         N          3.128            2.478     31.22    688.76
         N          3.129            2.478     31.22    688.74
         N          3.128            2.478     31.22    688.75
         N          3.128            2.478     31.22    688.75
         N          3.128            2.478     31.22    688.76
         N          3.128            2.478     31.22    688.75
         N          3.125            2.478     31.22    688.79
         N          3.123            2.478     31.22    688.80
[...]
         N          3.126            2.478     31.22    688.78
         N          3.126            2.478     31.22    688.77
         N          3.126            2.478     31.22    688.77
         N          3.126            2.478     31.22    688.77
         N          3.127            2.478     31.22    688.77
         N          3.129            2.478     31.22    688.75
         N          3.128            2.478     31.22    688.75
         N          3.128            2.478     31.22    688.75
         N          3.129            2.478     31.22    688.74
         N          3.126            2.478     31.22    688.77
         N          3.127            2.478     31.22    688.77
         N          3.128            2.478     31.22    688.75
         N          3.129            2.478     31.22    688.75
         N          3.128            2.478     31.22    688.76
         N          3.129            2.478     31.22    688.74

         Molecular C6 ( Ry / a.u.^6 ) =    437743.20

     gamma-point specific algorithms are used

     Message from routine setup:
     DEPRECATED: symmetry with ibrav=0, use correct ibrav instead

     bravais-lattice index     =            0
     lattice parameter (alat)  =      33.2346  a.u.
     unit-cell volume          =   36232.1385 (a.u.)^3
     number of atoms/cell      =           98
     number of atomic types    =            5
     number of electrons       =       391.00
     number of Kohn-Sham states=          245
     kinetic-energy cutoff     =      40.0000  Ry
     charge density cutoff     =     160.0000  Ry
     convergence threshold     =      1.0E-12
     mixing beta               =       0.7000
     number of iterations used =            8  plain     mixing
     Exchange-correlation      = SLA PW PBX PBC ( 1  4  3  4 0 0)
     nstep                     =           50

     celldm(1)=  33.234611  celldm(2)=   0.000000  celldm(3)=   0.000000
     celldm(4)=   0.000000  celldm(5)=   0.000000  celldm(6)=   0.000000

     crystal axes: (cart. coord. in units of alat)
               a(1) = (   1.001047   0.000089   0.000000 )
               a(2) = (  -0.500446   0.866976   0.000000 )
               a(3) = (   0.000000   0.000000   1.137204 )

     reciprocal axes: (cart. coord. in units 2 pi/alat)
               b(1) = (  0.998903  0.576598  0.000000 )
               b(2) = ( -0.000103  1.153375  0.000000 )
               b(3) = (  0.000000  0.000000  0.879350 )

     PseudoPot. # 1 for B  read from file:
     ./pseudo/B.pbe-n-kjpaw_psl.1.0.0.UPF
     MD5 check sum: 8c825a5969375aca5c2c6ad5945b3059
     Pseudo is Projector augmented-wave + core cor, Zval =  3.0
     Generated using "atomic" code by A. Dal Corso v.6.3
     Shape of augmentation charge: PSQ
     Using radial grid of 1059 points,  4 beta functions with:
                l(1) =   0
                l(2) =   0
                l(3) =   1
                l(4) =   1
     Q(r) pseudized with 0 coefficients

     PseudoPot. # 2 for N  read from file:
     ./pseudo/N.pbe-n-kjpaw_psl.1.0.0.UPF
     MD5 check sum: 14c48229446f9f2d411169a3abcbc3fa
     Pseudo is Projector augmented-wave + core cor, Zval =  5.0
     Generated using "atomic" code by A. Dal Corso v.6.3
     Shape of augmentation charge: PSQ
     Using radial grid of 1085 points,  4 beta functions with:
                l(1) =   0
                l(2) =   0
                l(3) =   1
                l(4) =   1
     Q(r) pseudized with 0 coefficients

     PseudoPot. # 3 for C  read from file:
     ./pseudo/C.pbe-n-kjpaw_psl.1.0.0.UPF
     MD5 check sum: 5f16ad9a65e90284d1d834d4ab3b0f7d
     Pseudo is Projector augmented-wave + core cor, Zval =  4.0
     Generated using "atomic" code by A. Dal Corso v.6.3
     Shape of augmentation charge: PSQ
     Using radial grid of 1073 points,  4 beta functions with:
                l(1) =   0
                l(2) =   0
                l(3) =   1
                l(4) =   1
     Q(r) pseudized with 0 coefficients

[...]

     atomic species   valence    mass     pseudopotential
        B              3.00    10.00000     B ( 1.00)
        N              5.00    14.00000     N ( 1.00)
        C1             4.00    12.00000     C ( 1.00)
        C2             4.00    12.00000     C ( 1.00)
        C3             4.00    12.00000     C ( 1.00)

     Starting magnetic structure
     atomic species   magnetization
        B            0.000
        N            0.000
        C1           1.000
        C2           0.000
        C3           0.000

      2 Sym. Ops. (no inversion) found

   Cartesian axes

     site n.     atom                  positions (alat units)
         1           B   tau(   1) = (  -0.0000493   0.0821149   0.5686018  )
         2           B   tau(   2) = (  -0.0715880   0.2061401   0.5686018  )
         3           B   tau(   3) = (  -0.1432594   0.3301975   0.5686018  )
         4           B   tau(   4) = (  -0.2148863   0.4541022   0.5686018  )
         5           B   tau(   5) = (  -0.2859564   0.5779658   0.5686018  )
         6           B   tau(   6) = (  -0.3572408   0.7019363   0.5686018  )
         7           B   tau(   7) = (  -0.4288283   0.8256280   0.5686018  )
         8           B   tau(   8) = (   0.1429048   0.0818348   0.5686018  )
         9           B   tau(   9) = (   0.0710828   0.2051107   0.5686018  )
        10           B   tau(  10) = (  -0.0002602   0.3301725   0.5686018  )
[...]
        98           N   tau(  98) = (   0.5008542   0.7847216   0.5686018  )

     number of k points=     1
                       cart. coord. in units 2pi/alat
        k(    1) = (   0.0000000   0.0000000   0.0000000), wk =   1.0000000

     Occupations read from input

      Spin-up

[...]

      Spin-down

[...]

     Check: negative core charge=   -0.000006

     Initial potential from superposition of free atoms

     starting charge  390.98597, renormalised to  391.00000

     negative rho (up, down):  5.509E-02 6.401E-03
     Starting wfcs are  392 randomized atomic wfcs
     Checking if some PAW data can be deallocated...

     Self-consistent Calculation

[...]

     iteration # 11     ecut=    40.00 Ry     beta= 0.70
     CG style diagonalization
     c_bands:  1 eigenvalues not converged
     ethr =  9.90E-08,  avg # of iterations =  3.6

[...]

     total energy              =   -1940.16880710 Ry
     Harris-Foulkes estimate   =   -1940.16880711 Ry
     estimated scf accuracy    <          1.1E-12 Ry

[...]

     iteration # 25     ecut=    40.00 Ry     beta= 0.70
     CG style diagonalization
     ethr =  1.00E-13,  avg # of iterations =  3.2

[...]

     Magnetic moment per site:
     atom:    1    charge:    0.8508    magn:    0.0001    constr:    0.0000
     atom:    2    charge:    0.8461    magn:    0.0011    constr:    0.0000
     atom:    3    charge:    0.8471    magn:    0.0020    constr:    0.0000
     atom:    4    charge:    0.8489    magn:   -0.0004    constr:    0.0000
     atom:    5    charge:    0.8517    magn:    0.0010    constr:    0.0000
     atom:    6    charge:    0.8500    magn:   -0.0001    constr:    0.0000
     atom:    7    charge:    0.8509    magn:    0.0005    constr:    0.0000
     atom:    8    charge:    0.8498    magn:    0.0008    constr:    0.0000
     atom:    9    charge:    0.8508    magn:    0.0005    constr:    0.0000
     atom:   10    charge:    0.8436    magn:    0.0098    constr:    0.0000
     atom:   11    charge:    0.8473    magn:    0.0014    constr:    0.0000
     atom:   12    charge:    0.8527    magn:    0.0018    constr:    0.0000
     atom:   13    charge:    0.8516    magn:   -0.0004    constr:    0.0000
     atom:   14    charge:    0.8500    magn:   -0.0001    constr:    0.0000
     atom:   15    charge:    0.8498    magn:    0.0003    constr:    0.0000
     atom:   16    charge:    0.8553    magn:    0.0058    constr:    0.0000
     atom:   17    charge:    0.8614    magn:    0.0175    constr:    0.0000
     atom:   18    charge:    0.8501    magn:    0.0260    constr:    0.0000
     atom:   19    charge:    0.8604    magn:    0.0097    constr:    0.0000
     atom:   20    charge:    0.8527    magn:    0.0018    constr:    0.0000
     atom:   21    charge:    0.8517    magn:    0.0010    constr:    0.0000
     atom:   22    charge:    0.8467    magn:   -0.0000    constr:    0.0000
     atom:   23    charge:    0.8437    magn:    0.0013    constr:    0.0000
     atom:   24    charge:    0.8411    magn:    0.0104    constr:    0.0000
     atom:   25    charge:    1.6344    magn:    0.1386    constr:    0.0000
     atom:   26    charge:    0.8501    magn:    0.0260    constr:    0.0000
     atom:   27    charge:    0.8473    magn:    0.0014    constr:    0.0000
     atom:   28    charge:    0.8489    magn:   -0.0004    constr:    0.0000
     atom:   29    charge:    0.8470    magn:    0.0009    constr:    0.0000
     atom:   30    charge:    0.8474    magn:    0.0002    constr:    0.0000
     atom:   31    charge:    0.8472    magn:    0.0025    constr:    0.0000
     atom:   32    charge:    0.8411    magn:    0.0104    constr:    0.0000
     atom:   33    charge:    0.8614    magn:    0.0175    constr:    0.0000
     atom:   34    charge:    0.8436    magn:    0.0098    constr:    0.0000
     atom:   35    charge:    0.8471    magn:    0.0020    constr:    0.0000
     atom:   36    charge:    0.8460    magn:    0.0003    constr:    0.0000
     atom:   37    charge:    0.8455    magn:   -0.0004    constr:    0.0000
     atom:   38    charge:    0.8474    magn:    0.0002    constr:    0.0000
     atom:   39    charge:    0.8437    magn:    0.0013    constr:    0.0000
     atom:   40    charge:    0.8553    magn:    0.0058    constr:    0.0000
     atom:   41    charge:    0.8508    magn:    0.0005    constr:    0.0000
     atom:   42    charge:    0.8461    magn:    0.0011    constr:    0.0000
     atom:   43    charge:    0.8460    magn:    0.0009    constr:    0.0000
     atom:   44    charge:    0.8460    magn:    0.0003    constr:    0.0000
     atom:   45    charge:    0.8470    magn:    0.0009    constr:    0.0000
     atom:   46    charge:    0.8467    magn:   -0.0000    constr:    0.0000
     atom:   47    charge:    0.8498    magn:    0.0003    constr:    0.0000
     atom:   48    charge:    0.8498    magn:    0.0008    constr:    0.0000
     atom:   49    charge:    0.8508    magn:    0.0001    constr:    0.0000
     atom:   50    charge:    2.7078    magn:   -0.0008    constr:    0.0000
     atom:   51    charge:    2.7058    magn:   -0.0007    constr:    0.0000
     atom:   52    charge:    2.6965    magn:   -0.0049    constr:    0.0000
     atom:   53    charge:    2.7050    magn:   -0.0063    constr:    0.0000
     atom:   54    charge:    2.7073    magn:   -0.0002    constr:    0.0000
     atom:   55    charge:    2.7002    magn:    0.0001    constr:    0.0000
     atom:   56    charge:    2.7026    magn:    0.0001    constr:    0.0000
     atom:   57    charge:    2.7028    magn:    0.0023    constr:    0.0000
     atom:   58    charge:    2.7037    magn:   -0.0008    constr:    0.0000
     atom:   59    charge:    2.6926    magn:   -0.0262    constr:    0.0000
     atom:   60    charge:    2.6963    magn:    0.0089    constr:    0.0000
[...]
     atom:   84    charge:    2.6965    magn:   -0.0049    constr:    0.0000
     atom:   85    charge:    2.7031    magn:   -0.0011    constr:    0.0000
     atom:   86    charge:    2.7026    magn:   -0.0003    constr:    0.0000
     atom:   87    charge:    2.7016    magn:   -0.0004    constr:    0.0000
     atom:   88    charge:    2.7019    magn:    0.0001    constr:    0.0000
     atom:   89    charge:    2.7072    magn:   -0.0057    constr:    0.0000
     atom:   90    charge:    2.7037    magn:   -0.0008    constr:    0.0000
     atom:   91    charge:    2.7058    magn:   -0.0007    constr:    0.0000
     atom:   92    charge:    2.7091    magn:   -0.0010    constr:    0.0000
     atom:   93    charge:    2.7031    magn:   -0.0011    constr:    0.0000
     atom:   94    charge:    2.7057    magn:   -0.0003    constr:    0.0000
     atom:   95    charge:    2.7065    magn:   -0.0004    constr:    0.0000
     atom:   96    charge:    2.7080    magn:   -0.0007    constr:    0.0000
     atom:   97    charge:    2.7028    magn:    0.0023    constr:    0.0000
     atom:   98    charge:    2.7078    magn:   -0.0008    constr:    0.0000

     End of self-consistent calculation

 ------ SPIN UP ------------

[...]

 ------ SPIN DOWN ----------

          k = 0.0000 0.0000 0.0000 ( 77468 PWs)   bands (ev):

   -21.7918 -21.5921 -21.4021 -21.3931 -21.3805 -21.3039 -21.2669 -20.8612
   -20.6676 -20.6529 -20.6234 -20.5527 -20.5433 -20.4298 -20.2947 -20.2896
   -20.2796 -20.1148 -20.1056 -19.5805 -19.4226 -19.4093 -19.4027 -19.3980
   -19.3874 -19.3765 -19.3699 -19.3267 -19.3015 -19.1732 -19.1703 -19.0402
   -18.9766 -18.9745 -18.9488 -18.7664 -18.7662 -18.5555 -18.5477 -18.5310
   -18.5210 -18.4751 -18.4288 -18.4059 -18.3710 -18.3507 -18.3439 -16.5621
   -14.6391 -13.0369 -12.7769 -12.7678 -12.7495 -12.7223 -12.7178 -12.6478
   -12.5665 -12.5297 -12.5233 -12.4611 -12.3983 -12.1460 -12.0688 -12.0556
   -12.0267 -11.9729 -11.9337 -11.5391 -11.4130 -11.4032 -11.3948 -11.3879
   -11.3742 -11.3636 -11.3611 -11.3068 -11.2894 -11.0671 -11.0238 -10.8619
   -10.7257 -10.7121 -10.6725 -10.6356 -10.4840 -10.0637 -10.0246 -10.0045
    -9.9271  -9.8715  -9.8072  -9.3955  -9.3177  -9.3138  -9.3037  -9.2917
    -9.2805  -9.2238  -9.0502  -8.9450  -8.9155  -8.9115  -8.9084  -8.8963
    -8.8917  -8.8882  -8.8795  -8.8630  -8.8342  -8.8309  -8.8249  -8.8213
    -8.8166  -8.7960  -8.7950  -8.7371  -8.7206  -8.6422  -8.6277  -8.6260
    -8.4633  -8.4376  -8.2222  -8.1974  -8.1958  -8.0742  -8.0703  -7.9229
    -7.8532  -7.8372  -7.8259  -7.7886  -7.7131  -7.6899  -7.5524  -7.5123
    -7.5030  -7.4768  -7.4572  -7.4511  -7.4447  -7.4046  -7.4027  -7.3432
    -7.3393  -7.3284  -7.3220  -7.2779  -7.2132  -7.1578  -7.1562  -7.0329
    -7.0292  -7.0022  -6.8608  -6.7984  -6.6431  -6.5220  -6.2379  -6.1939
    -6.1887  -6.1574  -6.0909  -6.0801  -6.0697  -6.0668  -6.0577  -6.0508
    -6.0428  -6.0407  -6.0138  -5.9589  -5.8152  -5.8087  -5.7863  -5.6865
    -5.5284  -5.4496  -5.4492  -5.4348  -5.2581  -5.2159  -5.0629  -4.9800
    -4.8016  -4.7891  -4.7778  -4.7650  -4.6770  -4.6574  -4.5697  -4.5188
    -4.5117  -4.5060  -4.1837  -2.8883   0.1834   0.4906   0.6992   0.7134
     0.7137   0.7325   0.7476   0.7482   0.7910   0.8031   0.8052   0.8074
     0.8112   0.8351   0.8541   0.8617   0.8860   0.9026   0.9468   0.9542
     1.0490   1.1656   1.2219   1.2575   1.2759   1.3158   1.3207   1.3256
     1.3372   1.3448   1.3494   1.3741   1.4217   1.4334   1.4359   1.4388
     1.4499   1.4591   1.4924   1.8871   2.0956   2.1001   2.1111   2.1213
     2.1442   2.1561   2.1562   2.2130   2.3255

     highest occupied, lowest unoccupied level (ev):    -4.1837   -4.2569

!    total energy              =   -1940.16880711 Ry
     Harris-Foulkes estimate   =   -1940.16880710 Ry
     estimated scf accuracy    <          6.2E-13 Ry

     total all-electron energy =     -7769.993284 Ry

     The total energy is the sum of the following terms:

     one-electron contribution =  -10644.53710027 Ry
     hartree contribution      =    5407.85682836 Ry
     xc contribution           =    -430.66107044 Ry
     ewald contribution        =    4370.62095007 Ry
     DFT-D3 Dispersion         =      -0.27013809 Ry
     one-center paw contrib.   =    -643.17827673 Ry

     total magnetization       =     1.00 Bohr mag/cell
     absolute magnetization    =     2.40 Bohr mag/cell

     convergence has been achieved in  25 iterations

     negative rho (up, down):  4.803E-01 1.388E-02

     Forces acting on atoms (cartesian axes, Ry/au):

     atom    1 type  1   force =     0.00000380   -0.00000723    0.00000000
     atom    2 type  1   force =     0.00000295   -0.00000492    0.00000000
     atom    3 type  1   force =     0.00000322   -0.00000187    0.00000000
     atom    4 type  1   force =    -0.00000005   -0.00000194    0.00000000
     atom    5 type  1   force =    -0.00000419    0.00000178    0.00000000
     atom    6 type  1   force =    -0.00000360    0.00000174    0.00000000
     atom    7 type  1   force =     0.00000422   -0.00000219    0.00000000
     atom    8 type  1   force =    -0.00000172   -0.00000247    0.00000000
     atom    9 type  1   force =     0.00000139   -0.00000003    0.00000000
     atom   10 type  1   force =     0.00000363    0.00000304    0.00000000
     atom   11 type  1   force =     0.00000742    0.00000055    0.00000000
     atom   12 type  1   force =     0.00000223    0.00000152    0.00000000
     atom   13 type  1   force =    -0.00000612    0.00000374    0.00000000
     atom   14 type  1   force =    -0.00000314    0.00000236    0.00000000
     atom   15 type  1   force =    -0.00000352    0.00000222    0.00000000
     atom   16 type  1   force =    -0.00000173    0.00000372    0.00000000
     atom   17 type  1   force =    -0.00000057    0.00000526    0.00000000
     atom   18 type  1   force =     0.00000267   -0.00000010    0.00000000
     atom   19 type  1   force =     0.00001097   -0.00000633    0.00000000
     atom   20 type  1   force =    -0.00000011   -0.00000249    0.00000000
     atom   21 type  1   force =    -0.00000366    0.00000274    0.00000000
     atom   22 type  1   force =    -0.00000297    0.00000385    0.00000000
     atom   23 type  1   force =    -0.00000289    0.00000509    0.00000000
     atom   24 type  1   force =    -0.00000469    0.00000531    0.00000000
     atom   25 type  4   force =    -0.00000407    0.00000225    0.00000000
     atom   26 type  1   force =     0.00000143   -0.00000231    0.00000000
     atom   27 type  1   force =     0.00000304   -0.00000654    0.00000000
     atom   28 type  1   force =     0.00000165    0.00000102    0.00000000
     atom   29 type  1   force =     0.00000173   -0.00000045    0.00000000
     atom   30 type  1   force =     0.00000236    0.00000067    0.00000000
     atom   31 type  1   force =    -0.00000086    0.00000045    0.00000000
     atom   32 type  1   force =    -0.00000694    0.00000127    0.00000000
     atom   33 type  1   force =    -0.00000496   -0.00000219    0.00000000
     atom   34 type  1   force =    -0.00000096   -0.00000456    0.00000000
     atom   35 type  1   force =     0.00000322   -0.00000176    0.00000000
     atom   36 type  1   force =     0.00000409   -0.00000150    0.00000000
     atom   37 type  1   force =     0.00000451   -0.00000268    0.00000000
     atom   38 type  1   force =     0.00000050   -0.00000247    0.00000000
     atom   39 type  1   force =    -0.00000581   -0.00000013    0.00000000
     atom   40 type  1   force =    -0.00000408   -0.00000046    0.00000000
     atom   41 type  1   force =     0.00000055   -0.00000109    0.00000000
     atom   42 type  1   force =     0.00000556   -0.00000003    0.00000000
     atom   43 type  1   force =     0.00000543   -0.00000318    0.00000000
     atom   44 type  1   force =     0.00000332   -0.00000301    0.00000000
     atom   45 type  1   force =     0.00000112   -0.00000140    0.00000000
     atom   46 type  1   force =    -0.00000509    0.00000054    0.00000000
     atom   47 type  1   force =    -0.00000379    0.00000180    0.00000000
     atom   48 type  1   force =     0.00000126    0.00000276    0.00000000
     atom   49 type  1   force =     0.00000813    0.00000045    0.00000000
     atom   50 type  2   force =     0.00000092    0.00000405    0.00000000
     atom   51 type  2   force =     0.00000075    0.00000379    0.00000000
     atom   52 type  2   force =     0.00000082   -0.00000115    0.00000000
     atom   53 type  2   force =     0.00000308    0.00000636    0.00000000
     atom   54 type  2   force =     0.00000493    0.00000008    0.00000000
     atom   55 type  2   force =     0.00000312   -0.00000714    0.00000000
     atom   56 type  2   force =     0.00000528   -0.00000317    0.00000000
     atom   57 type  2   force =     0.00000766    0.00001037    0.00000000
     atom   58 type  2   force =     0.00000370    0.00000900    0.00000000
     atom   59 type  2   force =    -0.00000421   -0.00000065    0.00000000
     atom   60 type  2   force =    -0.00000362    0.00000081    0.00000000
[...]
     atom   84 type  2   force =     0.00000152   -0.00000025    0.00000000
     atom   85 type  2   force =    -0.00000125   -0.00000342    0.00000000
     atom   86 type  2   force =    -0.00000104    0.00000071    0.00000000
     atom   87 type  2   force =    -0.00000237    0.00000304    0.00000000
     atom   88 type  2   force =    -0.00000505   -0.00000378    0.00000000
     atom   89 type  2   force =    -0.00000716   -0.00001385    0.00000000
     atom   90 type  2   force =    -0.00000587   -0.00000773    0.00000000
     atom   91 type  2   force =    -0.00000278   -0.00000273    0.00000000
     atom   92 type  2   force =    -0.00000153    0.00000086    0.00000000
     atom   93 type  2   force =     0.00000230    0.00000298    0.00000000
     atom   94 type  2   force =     0.00000475    0.00000757    0.00000000
     atom   95 type  2   force =     0.00000127    0.00000236    0.00000000
     atom   96 type  2   force =    -0.00000144   -0.00000861    0.00000000
     atom   97 type  2   force =    -0.00000518   -0.00001183    0.00000000
     atom   98 type  2   force =    -0.00000317   -0.00000305    0.00000000

     Total force =     0.000060     Total SCF correction =     0.000001

     Computing stress (Cartesian axis) and pressure

     negative rho (up, down):  4.803E-01 1.388E-02
          total   stress  (Ry/bohr**3)                   (kbar)     P=   -0.16
   0.00000001  -0.00000000   0.00000000          0.00     -0.00      0.00
  -0.00000000   0.00000001   0.00000000         -0.00      0.00      0.00
   0.00000000   0.00000000  -0.00000334          0.00      0.00     -0.49

     Writing output data file C2Cn.save/

     General routines

     Parallel routines

   This run was terminated on:  11: 2:29   2Jul2021

   JOB DONE.