     Program PWSCF v.6.4.1 starts on 21Sep2021 at  6: 3:12

     R & G space division:  proc/nbgrp/npool/nimage =      64
     Waiting for input...
     Reading input from standard input

     Current dimensions of program PWSCF are:
     Max number of different atomic species (ntypx) = 10
     Max number of k-points (npk) =  40000
     Max angular momentum in pseudopotentials (lmaxx) =  3

     IMPORTANT: XC functional enforced from input :
     Exchange-correlation      = HSE ( 1  4 12  4 0 0)
     EXX-fraction              =        0.25
     Any further DFT definition will be discarded
     Please, verify this is what you really want

               file N.pbe-n-kjpaw_psl.1.0.0.UPF: wavefunction(s)  2S renormalized
               file C.pbe-n-kjpaw_psl.1.0.0.UPF: wavefunction(s)  2S 2P renormalized
               file C.pbe-n-kjpaw_psl.1.0.0.UPF: wavefunction(s)  2S 2P renormalized
               file C.pbe-n-kjpaw_psl.1.0.0.UPF: wavefunction(s)  2S 2P renormalized
     EXX fraction changed:   0.32
     EXX Screening parameter changed:    0.0455000

     Parameters for DFT-D3 Dispersion Correction:
       Reference C6 values for interpolation:

         atom   Coordination number   C6
         B          0.000           214.36
         B          0.971           150.74
         B          1.944           106.23
         B          2.913            62.89
         B          4.586            56.06
         C1         0.000            98.23
         C1         0.987            86.49
         C1         1.998            58.72
         C1         2.999            51.56
         C1         3.984            36.41
         C2         0.000            98.23
         C2         0.987            86.49
         C2         1.998            58.72
         C2         2.999            51.56
         C2         3.984            36.41
         C3         0.000            98.23
         C3         0.987            86.49
         C3         1.998            58.72
         C3         2.999            51.56
         C3         3.984            36.41
         N          0.000            50.54
         N          0.994            44.25
         N          2.014            39.35
         N          2.990            31.16

       Values used:

         atom   Coordination number  R0_AB[au]  C6      C8
         B          3.325            3.039     62.90   2506.24
         B          3.317            3.039     62.90   2506.44
         B          3.317            3.039     62.90   2506.43
         B          3.325            3.039     62.90   2506.25
         B          3.327            3.039     62.90   2506.21
         B          3.324            3.039     62.90   2506.27
         B          3.326            3.039     62.90   2506.22
         B          3.325            3.039     62.90   2506.26
         B          3.323            3.039     62.90   2506.30
         B          3.303            3.039     62.91   2506.76
         B          3.322            3.039     62.90   2506.33
         B          3.329            3.039     62.90   2506.15
         B          3.325            3.039     62.90   2506.24
         B          3.324            3.039     62.90   2506.27
         B          3.325            3.039     62.90   2506.26
         B          3.327            3.039     62.90   2506.21
         B          3.297            3.039     62.91   2506.88
         B          3.297            3.039     62.91   2506.90
         B          3.336            3.039     62.89   2505.99
         B          3.329            3.039     62.90   2506.15
         B          3.327            3.039     62.90   2506.21
         B          3.323            3.039     62.90   2506.31
         B          3.319            3.039     62.90   2506.40
         B          3.314            3.039     62.90   2506.51
         C2         3.249            2.750     49.43   1429.56
         B          3.297            3.039     62.91   2506.90
         B          3.322            3.039     62.90   2506.33
         B          3.325            3.039     62.90   2506.25
         B          3.321            3.039     62.90   2506.36
         B          3.319            3.039     62.90   2506.39
         B          3.315            3.039     62.90   2506.50
         B          3.314            3.039     62.90   2506.51
         B          3.297            3.039     62.91   2506.88
         B          3.303            3.039     62.91   2506.76
         B          3.317            3.039     62.90   2506.43
         B          3.316            3.039     62.90   2506.45
         B          3.318            3.039     62.90   2506.42
         B          3.319            3.039     62.90   2506.39
         B          3.319            3.039     62.90   2506.40
         B          3.327            3.039     62.90   2506.21
         B          3.323            3.039     62.90   2506.30
         B          3.317            3.039     62.90   2506.44
         B          3.319            3.039     62.90   2506.40
         B          3.316            3.039     62.90   2506.45
         B          3.321            3.039     62.90   2506.36
         B          3.323            3.039     62.90   2506.31
         B          3.325            3.039     62.90   2506.26
         B          3.325            3.039     62.90   2506.26
         B          3.325            3.039     62.90   2506.24
         N          3.129            2.478     31.22    688.74
         N          3.128            2.478     31.22    688.75
         N          3.125            2.478     31.22    688.79
         N          3.128            2.478     31.22    688.75
         N          3.130            2.478     31.22    688.73
         N          3.129            2.478     31.22    688.75
         N          3.129            2.478     31.22    688.75
         N          3.129            2.478     31.22    688.75
         N          3.129            2.478     31.22    688.74
         N          3.124            2.478     31.22    688.79
         N          3.123            2.478     31.22    688.80
[...]
         N          3.125            2.478     31.22    688.79
         N          3.126            2.478     31.22    688.77
         N          3.126            2.478     31.22    688.77
         N          3.127            2.478     31.22    688.76
         N          3.127            2.478     31.22    688.76
         N          3.129            2.478     31.22    688.74
         N          3.129            2.478     31.22    688.74
         N          3.128            2.478     31.22    688.75
         N          3.129            2.478     31.22    688.74
         N          3.126            2.478     31.22    688.77
         N          3.127            2.478     31.22    688.77
         N          3.129            2.478     31.22    688.75
         N          3.130            2.478     31.22    688.74
         N          3.129            2.478     31.22    688.75
         N          3.129            2.478     31.22    688.74

         Molecular C6 ( Ry / a.u.^6 ) =    437698.51

     gamma-point specific algorithms are used
     Message from routine setup :
     BEWARE: nonlinear core correction is not consistent with hybrid XC

     EXX: grid of k+q points same as grid of k-points

     bravais-lattice index     =            0
     lattice parameter (alat)  =      33.2346  a.u.
     unit-cell volume          =   36184.4017 (a.u.)^3
     number of atoms/cell      =           98
     number of atomic types    =            5
     number of electrons       =       391.00
     number of Kohn-Sham states=          245
     kinetic-energy cutoff     =      15.0000  Ry
     charge density cutoff     =      60.0000  Ry
     cutoff for Fock operator  =      60.0000  Ry
     convergence threshold     =      1.0E-06
     mixing beta               =       0.7000
     number of iterations used =            8  plain     mixing
     Exchange-correlation      = HSE ( 1  4 12  4 0 0)
     EXX-fraction              =        0.32

     celldm(1)=  33.234611  celldm(2)=   0.000000  celldm(3)=   0.000000
     celldm(4)=   0.000000  celldm(5)=   0.000000  celldm(6)=   0.000000

     crystal axes: (cart. coord. in units of alat)
               a(1) = (   1.000640  -0.000349   0.000000 )
               a(2) = (  -0.500622   0.866405   0.000000 )
               a(3) = (   0.000000   0.000000   1.137204 )

     reciprocal axes: (cart. coord. in units 2 pi/alat)
               b(1) = (  0.999562  0.577562  0.000000 )
               b(2) = (  0.000402  1.154427  0.000000 )
               b(3) = (  0.000000  0.000000  0.879350 )

     PseudoPot. # 1 for B  read from file:
     ./pseudo/B.pbe-n-kjpaw_psl.1.0.0.UPF
     MD5 check sum: 8c825a5969375aca5c2c6ad5945b3059
     Pseudo is Projector augmented-wave + core cor, Zval =  3.0
     Generated using "atomic" code by A. Dal Corso v.6.3
     Shape of augmentation charge: PSQ
     Using radial grid of 1059 points,  4 beta functions with:
                l(1) =   0
                l(2) =   0
                l(3) =   1
                l(4) =   1
     Q(r) pseudized with 0 coefficients

     PseudoPot. # 2 for N  read from file:
     ./pseudo/N.pbe-n-kjpaw_psl.1.0.0.UPF
     MD5 check sum: 14c48229446f9f2d411169a3abcbc3fa
     Pseudo is Projector augmented-wave + core cor, Zval =  5.0
     Generated using "atomic" code by A. Dal Corso v.6.3
     Shape of augmentation charge: PSQ
     Using radial grid of 1085 points,  4 beta functions with:
                l(1) =   0
                l(2) =   0
                l(3) =   1
                l(4) =   1
     Q(r) pseudized with 0 coefficients

     PseudoPot. # 3 for C  read from file:
     ./pseudo/C.pbe-n-kjpaw_psl.1.0.0.UPF
     MD5 check sum: 5f16ad9a65e90284d1d834d4ab3b0f7d
     Pseudo is Projector augmented-wave + core cor, Zval =  4.0
     Generated using "atomic" code by A. Dal Corso v.6.3
     Shape of augmentation charge: PSQ
     Using radial grid of 1073 points,  4 beta functions with:
                l(1) =   0
                l(2) =   0
                l(3) =   1
                l(4) =   1
     Q(r) pseudized with 0 coefficients

[...]

     PseudoPot. # 5 for C  read from file:
     ./pseudo/C.pbe-n-kjpaw_psl.1.0.0.UPF
     MD5 check sum: 5f16ad9a65e90284d1d834d4ab3b0f7d
     Pseudo is Projector augmented-wave + core cor, Zval =  4.0
     Generated using "atomic" code by A. Dal Corso v.6.3
     Shape of augmentation charge: PSQ
     Using radial grid of 1073 points,  4 beta functions with:
                l(1) =   0
                l(2) =   0
                l(3) =   1
                l(4) =   1
     Q(r) pseudized with 0 coefficients

     atomic species   valence    mass     pseudopotential
        B              3.00    10.00000     B ( 1.00)
        N              5.00    14.00000     N ( 1.00)
        C1             4.00    12.00000     C ( 1.00)
        C2             4.00    12.00000     C ( 1.00)
        C3             4.00    12.00000     C ( 1.00)

     Starting magnetic structure
     atomic species   magnetization
        B            0.000
        N            0.000
        C1           1.000
[...]
     atom:    2    charge:    0.7675    magn:    0.0003    constr:    0.0000
     atom:    3    charge:    0.8017    magn:    0.0009    constr:    0.0000
     atom:    4    charge:    0.7559    magn:   -0.0001    constr:    0.0000
     atom:    5    charge:    0.8054    magn:    0.0001    constr:    0.0000
     atom:    6    charge:    0.7699    magn:    0.0001    constr:    0.0000
     atom:    7    charge:    0.7936    magn:   -0.0000    constr:    0.0000
     atom:    8    charge:    0.7693    magn:    0.0001    constr:    0.0000
     atom:    9    charge:    0.7795    magn:   -0.0004    constr:    0.0000
     atom:   10    charge:    0.7598    magn:    0.0029    constr:    0.0000
     atom:   11    charge:    0.7704    magn:    0.0005    constr:    0.0000
     atom:   12    charge:    0.7784    magn:    0.0001    constr:    0.0000
     atom:   13    charge:    0.7694    magn:   -0.0000    constr:    0.0000
     atom:   14    charge:    0.7699    magn:    0.0001    constr:    0.0000
     atom:   15    charge:    0.7778    magn:   -0.0001    constr:    0.0000
     atom:   16    charge:    0.8065    magn:    0.0001    constr:    0.0000
     atom:   17    charge:    0.7837    magn:    0.0016    constr:    0.0000
     atom:   18    charge:    0.7836    magn:    0.0061    constr:    0.0000
     atom:   19    charge:    0.8051    magn:   -0.0004    constr:    0.0000
     atom:   20    charge:    0.7784    magn:    0.0002    constr:    0.0000
     atom:   21    charge:    0.8054    magn:    0.0001    constr:    0.0000
     atom:   22    charge:    0.7747    magn:    0.0001    constr:    0.0000
     atom:   23    charge:    0.7493    magn:    0.0004    constr:    0.0000
     atom:   24    charge:    0.7688    magn:   -0.0005    constr:    0.0000
     atom:   25    charge:    1.4875    magn:   -0.0212    constr:    0.0000
     atom:   26    charge:    0.7836    magn:    0.0062    constr:    0.0000
     atom:   27    charge:    0.7704    magn:    0.0005    constr:    0.0000
     atom:   28    charge:    0.7559    magn:   -0.0001    constr:    0.0000
     atom:   29    charge:    0.7735    magn:    0.0001    constr:    0.0000
     atom:   30    charge:    0.7912    magn:    0.0001    constr:    0.0000
     atom:   31    charge:    0.7913    magn:   -0.0003    constr:    0.0000
     atom:   32    charge:    0.7688    magn:   -0.0005    constr:    0.0000
     atom:   33    charge:    0.7837    magn:    0.0017    constr:    0.0000
     atom:   34    charge:    0.7598    magn:    0.0030    constr:    0.0000
     atom:   35    charge:    0.8017    magn:    0.0009    constr:    0.0000
     atom:   36    charge:    0.7808    magn:    0.0004    constr:    0.0000
     atom:   37    charge:    0.7513    magn:   -0.0000    constr:    0.0000
     atom:   38    charge:    0.7912    magn:    0.0001    constr:    0.0000
     atom:   39    charge:    0.7493    magn:    0.0004    constr:    0.0000
     atom:   40    charge:    0.8065    magn:    0.0001    constr:    0.0000
     atom:   41    charge:    0.7795    magn:   -0.0003    constr:    0.0000
     atom:   42    charge:    0.7675    magn:    0.0003    constr:    0.0000
     atom:   43    charge:    0.7660    magn:   -0.0000    constr:    0.0000
     atom:   44    charge:    0.7808    magn:    0.0004    constr:    0.0000
     atom:   45    charge:    0.7735    magn:    0.0001    constr:    0.0000
     atom:   46    charge:    0.7747    magn:    0.0001    constr:    0.0000
     atom:   47    charge:    0.7778    magn:   -0.0001    constr:    0.0000
     atom:   48    charge:    0.7693    magn:    0.0001    constr:    0.0000
     atom:   49    charge:    0.7879    magn:    0.0000    constr:    0.0000
     atom:   50    charge:    2.5578    magn:    0.0005    constr:    0.0000
     atom:   51    charge:    2.5153    magn:   -0.0002    constr:    0.0000
     atom:   52    charge:    2.5478    magn:    0.0031    constr:    0.0000
     atom:   53    charge:    2.5320    magn:    0.0000    constr:    0.0000
     atom:   54    charge:    2.5286    magn:    0.0001    constr:    0.0000
     atom:   55    charge:    2.5483    magn:   -0.0000    constr:    0.0000
     atom:   56    charge:    2.5159    magn:   -0.0001    constr:    0.0000
     atom:   57    charge:    2.5240    magn:    0.0003    constr:    0.0000
     atom:   58    charge:    2.5423    magn:    0.0042    constr:    0.0000
     atom:   59    charge:    2.5448    magn:    0.0054    constr:    0.0000
     atom:   60    charge:    2.5007    magn:    0.0114    constr:    0.0000
[...]
     atom:   84    charge:    2.5477    magn:    0.0031    constr:    0.0000
     atom:   85    charge:    2.5273    magn:    0.0004    constr:    0.0000
     atom:   86    charge:    2.5178    magn:   -0.0001    constr:    0.0000
     atom:   87    charge:    2.5187    magn:   -0.0000    constr:    0.0000
     atom:   88    charge:    2.5176    magn:    0.0002    constr:    0.0000
     atom:   89    charge:    2.5250    magn:    0.0002    constr:    0.0000
     atom:   90    charge:    2.5423    magn:    0.0041    constr:    0.0000
     atom:   91    charge:    2.5153    magn:   -0.0002    constr:    0.0000
     atom:   92    charge:    2.5591    magn:   -0.0001    constr:    0.0000
     atom:   93    charge:    2.5273    magn:    0.0004    constr:    0.0000
     atom:   94    charge:    2.5758    magn:    0.0000    constr:    0.0000
     atom:   95    charge:    2.5216    magn:   -0.0000    constr:    0.0000
     atom:   96    charge:    2.5805    magn:   -0.0000    constr:    0.0000
     atom:   97    charge:    2.5240    magn:    0.0003    constr:    0.0000
     atom:   98    charge:    2.5578    magn:    0.0005    constr:    0.0000

     End of self-consistent calculation

 ------ SPIN UP ------------

          k = 0.0000 0.0000 0.0000 ( 17757 PWs)   bands (ev):

[...]

 ------ SPIN DOWN ----------

[...]

     highest occupied, lowest unoccupied level (ev):    -3.7014   -3.1112

!    total energy              =   -1912.09628938 Ry
     Harris-Foulkes estimate   =   -1912.09628098 Ry
     estimated scf accuracy    <       0.00000036 Ry

[...]

     convergence has been achieved in  11 iterations

     Using ACE for calculation of exact exchange

[...]

     EXX: now go back to refine exchange calculation

[...]

     iteration #  1     ecut=    15.00 Ry     beta= 0.70
     CG style diagonalization
     c_bands:  1 eigenvalues not converged
     ethr =  5.68E-10,  avg # of iterations = 24.2

[...]

     total energy              =   -1686.28907794 Ry
     Harris-Foulkes estimate   =   -1686.28908446 Ry
     est. exchange err (dexx)  =       0.04313343 Ry
     - averaged Fock potential =     191.73424329 Ry
     + Fock energy (ACE)       =     -96.00438738 Ry

[...]

     total energy              =   -1686.29949572 Ry
     Harris-Foulkes estimate   =   -1686.29949709 Ry
     estimated scf accuracy    <       0.00000157 Ry

[...]

     total energy              =   -1686.29949569 Ry
     Harris-Foulkes estimate   =   -1686.29949834 Ry
     est. exchange err (dexx)  =       0.00000205 Ry
     - averaged Fock potential =     192.20400654 Ry
     + Fock energy (ACE)       =     -96.10254724 Ry

     EXX: now go back to refine exchange calculation

     Self-consistent Calculation

     iteration #  1     ecut=    15.00 Ry     beta= 0.70
     CG style diagonalization
     ethr =  4.02E-10,  avg # of iterations =  3.6

     negative rho (up, down):  1.138E+01 2.583E-03

     Magnetic moment per site:
     atom:    1    charge:    0.7660    magn:   -0.0000    constr:    0.0000
     atom:    2    charge:    0.7454    magn:    0.0002    constr:    0.0000
     atom:    3    charge:    0.7798    magn:    0.0005    constr:    0.0000
     atom:    4    charge:    0.7342    magn:   -0.0000    constr:    0.0000
     atom:    5    charge:    0.7837    magn:    0.0000    constr:    0.0000
     atom:    6    charge:    0.7481    magn:    0.0000    constr:    0.0000
     atom:    7    charge:    0.7717    magn:   -0.0000    constr:    0.0000
     atom:    8    charge:    0.7471    magn:    0.0000    constr:    0.0000
     atom:    9    charge:    0.7576    magn:   -0.0004    constr:    0.0000
     atom:   10    charge:    0.7379    magn:    0.0022    constr:    0.0000
     atom:   11    charge:    0.7484    magn:    0.0003    constr:    0.0000
     atom:   12    charge:    0.7565    magn:    0.0001    constr:    0.0000
     atom:   13    charge:    0.7477    magn:   -0.0000    constr:    0.0000
     atom:   14    charge:    0.7481    magn:    0.0000    constr:    0.0000
     atom:   15    charge:    0.7558    magn:   -0.0001    constr:    0.0000
     atom:   16    charge:    0.7847    magn:   -0.0001    constr:    0.0000
     atom:   17    charge:    0.7635    magn:    0.0010    constr:    0.0000
     atom:   18    charge:    0.7630    magn:    0.0051    constr:    0.0000
     atom:   19    charge:    0.7835    magn:   -0.0005    constr:    0.0000
     atom:   20    charge:    0.7565    magn:    0.0001    constr:    0.0000
     atom:   21    charge:    0.7837    magn:    0.0000    constr:    0.0000
     atom:   22    charge:    0.7526    magn:    0.0000    constr:    0.0000
     atom:   23    charge:    0.7275    magn:    0.0001    constr:    0.0000
     atom:   24    charge:    0.7469    magn:   -0.0013    constr:    0.0000
     atom:   25    charge:    1.4548    magn:   -0.0430    constr:    0.0000
     atom:   26    charge:    0.7630    magn:    0.0051    constr:    0.0000
     atom:   27    charge:    0.7484    magn:    0.0003    constr:    0.0000
     atom:   28    charge:    0.7342    magn:   -0.0000    constr:    0.0000
     atom:   29    charge:    0.7514    magn:    0.0000    constr:    0.0000
     atom:   30    charge:    0.7693    magn:   -0.0000    constr:    0.0000
     atom:   31    charge:    0.7693    magn:   -0.0004    constr:    0.0000
     atom:   32    charge:    0.7469    magn:   -0.0013    constr:    0.0000
     atom:   33    charge:    0.7635    magn:    0.0010    constr:    0.0000
     atom:   34    charge:    0.7379    magn:    0.0022    constr:    0.0000
     atom:   35    charge:    0.7798    magn:    0.0005    constr:    0.0000
     atom:   36    charge:    0.7587    magn:    0.0002    constr:    0.0000
     atom:   37    charge:    0.7296    magn:   -0.0000    constr:    0.0000
     atom:   38    charge:    0.7693    magn:   -0.0000    constr:    0.0000
     atom:   39    charge:    0.7275    magn:    0.0001    constr:    0.0000
     atom:   40    charge:    0.7847    magn:   -0.0001    constr:    0.0000
     atom:   41    charge:    0.7576    magn:   -0.0004    constr:    0.0000
     atom:   42    charge:    0.7454    magn:    0.0002    constr:    0.0000
     atom:   43    charge:    0.7436    magn:   -0.0000    constr:    0.0000
     atom:   44    charge:    0.7587    magn:    0.0002    constr:    0.0000
     atom:   45    charge:    0.7514    magn:    0.0000    constr:    0.0000
     atom:   46    charge:    0.7526    magn:    0.0000    constr:    0.0000
     atom:   47    charge:    0.7558    magn:   -0.0001    constr:    0.0000
     atom:   48    charge:    0.7471    magn:    0.0000    constr:    0.0000
     atom:   49    charge:    0.7660    magn:   -0.0000    constr:    0.0000
     atom:   50    charge:    2.5439    magn:    0.0003    constr:    0.0000
     atom:   51    charge:    2.5013    magn:   -0.0001    constr:    0.0000
     atom:   52    charge:    2.5339    magn:    0.0018    constr:    0.0000
     atom:   53    charge:    2.5180    magn:    0.0000    constr:    0.0000
     atom:   54    charge:    2.5147    magn:    0.0001    constr:    0.0000
     atom:   55    charge:    2.5343    magn:    0.0000    constr:    0.0000
     atom:   56    charge:    2.5019    magn:   -0.0000    constr:    0.0000
     atom:   57    charge:    2.5099    magn:    0.0002    constr:    0.0000
     atom:   58    charge:    2.5283    magn:    0.0029    constr:    0.0000
     atom:   59    charge:    2.5308    magn:    0.0053    constr:    0.0000
     atom:   60    charge:    2.4864    magn:    0.0093    constr:    0.0000
[...]
     atom:   84    charge:    2.5339    magn:    0.0018    constr:    0.0000
     atom:   85    charge:    2.5132    magn:    0.0002    constr:    0.0000
     atom:   86    charge:    2.5038    magn:   -0.0001    constr:    0.0000
     atom:   87    charge:    2.5046    magn:   -0.0000    constr:    0.0000
     atom:   88    charge:    2.5035    magn:    0.0001    constr:    0.0000
     atom:   89    charge:    2.5110    magn:    0.0002    constr:    0.0000
     atom:   90    charge:    2.5283    magn:    0.0028    constr:    0.0000
     atom:   91    charge:    2.5013    magn:   -0.0001    constr:    0.0000
     atom:   92    charge:    2.5451    magn:   -0.0000    constr:    0.0000
     atom:   93    charge:    2.5132    magn:    0.0002    constr:    0.0000
     atom:   94    charge:    2.5619    magn:    0.0000    constr:    0.0000
     atom:   95    charge:    2.5075    magn:    0.0000    constr:    0.0000
     atom:   96    charge:    2.5667    magn:    0.0000    constr:    0.0000
     atom:   97    charge:    2.5099    magn:    0.0002    constr:    0.0000
     atom:   98    charge:    2.5440    magn:    0.0003    constr:    0.0000

     End of self-consistent calculation

 ------ SPIN UP ------------

[...]

 ------ SPIN DOWN ----------

          k = 0.0000 0.0000 0.0000 ( 17757 PWs)   bands (ev):

   -26.6607 -26.4476 -26.2576 -26.2502 -26.2324 -26.1699 -26.1138 -25.7054
   -25.5024 -25.4780 -25.4748 -25.3914 -25.3801 -25.2644 -25.1299 -25.1251
   -25.1108 -24.9612 -24.9391 -24.4203 -24.2402 -24.2393 -24.2363 -24.2214
   -24.2180 -24.2154 -24.2054 -24.1765 -24.1689 -24.0130 -24.0104 -23.8923
   -23.8394 -23.8370 -23.8187 -23.6432 -23.6328 -23.4449 -23.4365 -23.4248
   -23.4157 -23.3488 -23.3286 -23.2789 -23.2577 -23.2554 -23.2421 -20.8423
   -18.0922 -15.8480 -15.4122 -15.4067 -15.3939 -15.3619 -15.3544 -15.3034
   -15.2184 -15.1914 -15.1865 -15.1259 -15.0567 -14.7440 -14.6419 -14.6354
   -14.6086 -14.5442 -14.5263 -14.1323 -13.9968 -13.9911 -13.9788 -13.9728
   -13.9618 -13.9517 -13.9509 -13.8800 -13.8759 -13.6451 -13.5700 -13.1633
   -12.9390 -12.9302 -12.9069 -12.8799 -12.7391 -12.4900 -12.4880 -12.4385
   -12.3484 -12.2788 -12.2109 -11.5547 -11.5031 -11.4353 -11.3971 -11.3689
   -11.3660 -11.2921 -11.1697 -11.1180 -11.0895 -11.0535 -10.9840 -10.9668
   -10.9639 -10.9247 -10.9223 -10.9060 -10.8666 -10.8241 -10.8184 -10.7948
   -10.7611 -10.7526 -10.7496 -10.7385 -10.7181 -10.7058 -10.6454 -10.5669
   -10.4625 -10.3521  -9.9152  -9.9123  -9.9037  -9.8739  -9.8333  -9.7894
    -9.7403  -9.7210  -9.7114  -9.6075  -9.5876  -9.5452  -9.2592  -9.1330
    -9.1315  -9.1196  -9.1158  -9.0640  -9.0579  -9.0186  -9.0004  -8.9893
    -8.9572  -8.9411  -8.9392  -8.9390  -8.8916  -8.8277  -8.7559  -8.5893
    -8.5878  -8.5592  -8.5075  -8.3435  -8.1209  -7.9265  -7.7853  -7.5957
    -7.5905  -7.5895  -7.5764  -7.5747  -7.5670  -7.5448  -7.5126  -7.5091
    -7.2924  -7.2837  -7.2623  -7.2544  -7.2245  -7.1978  -6.9091  -6.8883
    -6.8152  -6.8087  -6.7992  -6.7865  -6.5982  -6.5030  -6.1828  -6.1559
    -6.0144  -5.9924  -5.9738  -5.9722  -5.8507  -5.8417  -5.7155  -5.6703
    -5.6662  -5.6580  -5.1667  -2.3021  -1.2382  -0.8862  -0.6206  -0.5923
    -0.5919  -0.5874  -0.5811  -0.5701  -0.5421  -0.2507  -0.2493  -0.2454
    -0.2429  -0.2320  -0.2270   0.0245   0.0264   0.0301   0.0375   0.0502
     0.0736   0.4378   0.7082   0.7184   0.7204   0.7220   0.7275   0.7325
     0.8583   0.8601   1.0305   1.0391   1.0394   1.0421   1.0492   1.0535
     1.0742   1.0744   1.0767   1.0844   1.0984   1.2121   1.4379   1.4431
     1.4548   1.4889   1.4904   1.5997   1.7297

     highest occupied, lowest unoccupied level (ev):    -4.7187   -2.3021

!    total energy              =   -1686.29949746 Ry
     Harris-Foulkes estimate   =   -1686.29949695 Ry
     estimated scf accuracy    <       0.00000073 Ry

     total magnetization       =     1.00 Bohr mag/cell
     absolute magnetization    =     1.48 Bohr mag/cell

     convergence has been achieved in   1 iterations

     Using ACE for calculation of exact exchange

!!   total energy              =   -1686.29949799 Ry
     Harris-Foulkes estimate   =   -1686.29949747 Ry
     est. exchange err (dexx)  =       0.00000052 Ry
     - averaged Fock potential =     192.20703976 Ry
     + Fock energy (ACE)       =     -96.10449305 Ry

     EXX self-consistency reached

     Writing output data file C2Cn.save/

     General routines

     Parallel routines

     EXX routines

     EXX+US  routines

     EXX+PAW routines

   This run was terminated on:  10:50:16  21Sep2021

   JOB DONE.