     Program PWSCF v.6.4.1 starts on  8Jun2021 at 19: 5:45

     R & G space division:  proc/nbgrp/npool/nimage =      64
     Waiting for input...
     Reading input from standard input

     Current dimensions of program PWSCF are:
     Max number of different atomic species (ntypx) = 10
     Max number of k-points (npk) =  40000
     Max angular momentum in pseudopotentials (lmaxx) =  3
               file N.pbe-n-kjpaw_psl.1.0.0.UPF: wavefunction(s)  2S renormalized
               file C.pbe-n-kjpaw_psl.1.0.0.UPF: wavefunction(s)  2S 2P renormalized
               file C.pbe-n-kjpaw_psl.1.0.0.UPF: wavefunction(s)  2S 2P renormalized
               file C.pbe-n-kjpaw_psl.1.0.0.UPF: wavefunction(s)  2S 2P renormalized

     Parameters for DFT-D3 Dispersion Correction:
       Reference C6 values for interpolation:

         atom   Coordination number   C6
         B          0.000           214.36
         B          0.971           150.74
         B          1.944           106.23
         B          2.913            62.89
         B          4.586            56.06
         C1         0.000            98.23
         C1         0.987            86.49
         C1         1.998            58.72
         C1         2.999            51.56
         C1         3.984            36.41
         C2         0.000            98.23
         C2         0.987            86.49
         C2         1.998            58.72
         C2         2.999            51.56
         C2         3.984            36.41
         C3         0.000            98.23
         C3         0.987            86.49
         C3         1.998            58.72
         C3         2.999            51.56
         C3         3.984            36.41
         N          0.000            50.54
         N          0.994            44.25
         N          2.014            39.35
         N          2.990            31.16

       Values used:

         atom   Coordination number  R0_AB[au]  C6      C8
         B          3.327            3.039     62.90   2506.22
         B          3.317            3.039     62.90   2506.44
         B          3.318            3.039     62.90   2506.43
         B          3.323            3.039     62.90   2506.29
         B          3.325            3.039     62.90   2506.26
         B          3.323            3.039     62.90   2506.29
         B          3.326            3.039     62.90   2506.23
         B          3.324            3.039     62.90   2506.27
         B          3.324            3.039     62.90   2506.27
         B          3.307            3.039     62.91   2506.68
         B          3.319            3.039     62.90   2506.39
         B          3.324            3.039     62.90   2506.27
         B          3.323            3.039     62.90   2506.30
         B          3.323            3.039     62.90   2506.29
         B          3.324            3.039     62.90   2506.28
         B          3.326            3.039     62.90   2506.23
         B          3.294            3.039     62.92   2506.96
         B          3.279            3.039     62.92   2507.30
         B          3.322            3.039     62.90   2506.32
         B          3.324            3.039     62.90   2506.27
         B          3.325            3.039     62.90   2506.26
         B          3.322            3.039     62.90   2506.33
         B          3.317            3.039     62.90   2506.43
         B          3.306            3.039     62.91   2506.70
         C2         3.235            2.750     49.63   1435.39
         B          3.279            3.039     62.92   2507.30
         B          3.319            3.039     62.90   2506.39
         B          3.323            3.039     62.90   2506.29
         B          3.319            3.039     62.90   2506.38
         B          3.317            3.039     62.90   2506.45
         B          3.307            3.039     62.91   2506.66
         B          3.306            3.039     62.91   2506.70
         B          3.294            3.039     62.92   2506.96
         B          3.307            3.039     62.91   2506.68
         B          3.318            3.039     62.90   2506.43
         B          3.316            3.039     62.90   2506.47
         B          3.316            3.039     62.90   2506.45
         B          3.317            3.039     62.90   2506.45
         B          3.317            3.039     62.90   2506.43
         B          3.326            3.039     62.90   2506.23
         B          3.324            3.039     62.90   2506.27
         B          3.317            3.039     62.90   2506.44
         B          3.319            3.039     62.90   2506.40
         B          3.316            3.039     62.90   2506.47
         B          3.319            3.039     62.90   2506.38
         B          3.322            3.039     62.90   2506.33
         B          3.324            3.039     62.90   2506.28
         B          3.324            3.039     62.90   2506.27
         B          3.327            3.039     62.90   2506.22
         N          3.129            2.478     31.22    688.74
         N          3.129            2.478     31.22    688.75
         N          3.125            2.478     31.22    688.78
         N          3.128            2.478     31.22    688.76
         N          3.129            2.478     31.22    688.74
         N          3.128            2.478     31.22    688.75
         N          3.128            2.478     31.22    688.75
         N          3.128            2.478     31.22    688.75
         N          3.129            2.478     31.22    688.74
         N          3.126            2.478     31.22    688.78
         N          3.124            2.478     31.22    688.80
[...]
         N          3.125            2.478     31.22    688.78
         N          3.126            2.478     31.22    688.77
         N          3.126            2.478     31.22    688.77
         N          3.126            2.478     31.22    688.77
         N          3.127            2.478     31.22    688.77
         N          3.129            2.478     31.22    688.75
         N          3.129            2.478     31.22    688.74
         N          3.129            2.478     31.22    688.75
         N          3.129            2.478     31.22    688.74
         N          3.126            2.478     31.22    688.77
         N          3.127            2.478     31.22    688.77
         N          3.128            2.478     31.22    688.75
         N          3.129            2.478     31.22    688.74
         N          3.128            2.478     31.22    688.75
         N          3.129            2.478     31.22    688.74

         Molecular C6 ( Ry / a.u.^6 ) =    437761.33

     gamma-point specific algorithms are used

     Message from routine setup:
     DEPRECATED: symmetry with ibrav=0, use correct ibrav instead

     bravais-lattice index     =            0
     lattice parameter (alat)  =      33.2346  a.u.
     unit-cell volume          =   36235.2308 (a.u.)^3
     number of atoms/cell      =           98
     number of atomic types    =            5
     number of electrons       =       391.00
     number of Kohn-Sham states=          245
     kinetic-energy cutoff     =      40.0000  Ry
     charge density cutoff     =     160.0000  Ry
     convergence threshold     =      1.0E-06
     mixing beta               =       0.7000
     number of iterations used =            8  plain     mixing
     Exchange-correlation      = SLA PW PBX PBC ( 1  4  3  4 0 0)
     nstep                     =           50

     celldm(1)=  33.234611  celldm(2)=   0.000000  celldm(3)=   0.000000
     celldm(4)=   0.000000  celldm(5)=   0.000000  celldm(6)=   0.000000

     crystal axes: (cart. coord. in units of alat)
               a(1) = (   1.001012   0.000223   0.000000 )
               a(2) = (  -0.500313   0.867013   0.000000 )
               a(3) = (   0.000000   0.000000   1.137204 )

     reciprocal axes: (cart. coord. in units 2 pi/alat)
               b(1) = (  0.998860  0.576396  0.000000 )
               b(2) = ( -0.000257  1.153237  0.000000 )
               b(3) = (  0.000000  0.000000  0.879350 )

     PseudoPot. # 1 for B  read from file:
     ./pseudo/B.pbe-n-kjpaw_psl.1.0.0.UPF
     MD5 check sum: 8c825a5969375aca5c2c6ad5945b3059
     Pseudo is Projector augmented-wave + core cor, Zval =  3.0
     Generated using "atomic" code by A. Dal Corso v.6.3
     Shape of augmentation charge: PSQ
     Using radial grid of 1059 points,  4 beta functions with:
                l(1) =   0
                l(2) =   0
                l(3) =   1
                l(4) =   1
     Q(r) pseudized with 0 coefficients

     PseudoPot. # 2 for N  read from file:
     ./pseudo/N.pbe-n-kjpaw_psl.1.0.0.UPF
     MD5 check sum: 14c48229446f9f2d411169a3abcbc3fa
     Pseudo is Projector augmented-wave + core cor, Zval =  5.0
     Generated using "atomic" code by A. Dal Corso v.6.3
     Shape of augmentation charge: PSQ
     Using radial grid of 1085 points,  4 beta functions with:
                l(1) =   0
                l(2) =   0
                l(3) =   1
                l(4) =   1
     Q(r) pseudized with 0 coefficients

     PseudoPot. # 3 for C  read from file:
     ./pseudo/C.pbe-n-kjpaw_psl.1.0.0.UPF
     MD5 check sum: 5f16ad9a65e90284d1d834d4ab3b0f7d
     Pseudo is Projector augmented-wave + core cor, Zval =  4.0
     Generated using "atomic" code by A. Dal Corso v.6.3
     Shape of augmentation charge: PSQ
     Using radial grid of 1073 points,  4 beta functions with:
                l(1) =   0
                l(2) =   0
                l(3) =   1
                l(4) =   1
     Q(r) pseudized with 0 coefficients

[...]

     atomic species   valence    mass     pseudopotential
        B              3.00    10.00000     B ( 1.00)
        N              5.00    14.00000     N ( 1.00)
        C1             4.00    12.00000     C ( 1.00)
        C2             4.00    12.00000     C ( 1.00)
        C3             4.00    12.00000     C ( 1.00)

     Starting magnetic structure
     atomic species   magnetization
        B            0.000
        N            0.000
        C1           1.000
        C2           0.000
        C3           0.000

      2 Sym. Ops. (no inversion) found

   Cartesian axes

     site n.     atom                  positions (alat units)
         1           B   tau(   1) = (  -0.0000723   0.0821092   0.5686018  )
         2           B   tau(   2) = (  -0.0715511   0.2061904   0.5686018  )
         3           B   tau(   3) = (  -0.1432088   0.3302880   0.5686018  )
         4           B   tau(   4) = (  -0.2148287   0.4541127   0.5686018  )
         5           B   tau(   5) = (  -0.2858947   0.5780301   0.5686018  )
         6           B   tau(   6) = (  -0.3571692   0.7019967   0.5686018  )
         7           B   tau(   7) = (  -0.4287310   0.8256854   0.5686018  )
         8           B   tau(   8) = (   0.1429062   0.0818146   0.5686018  )
         9           B   tau(   9) = (   0.0710629   0.2050242   0.5686018  )
        10           B   tau(  10) = (  -0.0002012   0.3301497   0.5686018  )
[...]

     number of k points=     1
                       cart. coord. in units 2pi/alat
        k(    1) = (   0.0000000   0.0000000   0.0000000), wk =   1.0000000

     Occupations read from input

      Spin-up

[...]

      Spin-down

[...]

     Check: negative core charge=   -0.000006

     Initial potential from superposition of free atoms

     starting charge  390.98597, renormalised to  391.00000

     negative rho (up, down):  5.510E-02 1.115E-02
     Starting wfcs are  392 randomized atomic wfcs
     Checking if some PAW data can be deallocated...

     Self-consistent Calculation

[...]

     iteration # 12     ecut=    40.00 Ry     beta= 0.70
     CG style diagonalization
     c_bands:  1 eigenvalues not converged
     ethr =  1.64E-09,  avg # of iterations =  3.8

[...]

     total energy              =   -1940.19890880 Ry
     Harris-Foulkes estimate   =   -1940.19890880 Ry
     estimated scf accuracy    <       0.00000003 Ry

[...]

     iteration # 16     ecut=    40.00 Ry     beta= 0.70
     CG style diagonalization
     ethr =  7.57E-12,  avg # of iterations =  3.7

[...]

     Magnetic moment per site:
     atom:    1    charge:    0.8567    magn:   -0.0000    constr:    0.0000
     atom:    2    charge:    0.8513    magn:    0.0014    constr:    0.0000
     atom:    3    charge:    0.8522    magn:    0.0012    constr:    0.0000
     atom:    4    charge:    0.8547    magn:    0.0001    constr:    0.0000
     atom:    5    charge:    0.8572    magn:    0.0006    constr:    0.0000
     atom:    6    charge:    0.8557    magn:    0.0000    constr:    0.0000
     atom:    7    charge:    0.8567    magn:    0.0007    constr:    0.0000
     atom:    8    charge:    0.8556    magn:    0.0006    constr:    0.0000
     atom:    9    charge:    0.8569    magn:    0.0003    constr:    0.0000
     atom:   10    charge:    0.8479    magn:    0.0073    constr:    0.0000
     atom:   11    charge:    0.8528    magn:    0.0006    constr:    0.0000
     atom:   12    charge:    0.8575    magn:    0.0004    constr:    0.0000
     atom:   13    charge:    0.8573    magn:   -0.0000    constr:    0.0000
     atom:   14    charge:    0.8557    magn:    0.0000    constr:    0.0000
     atom:   15    charge:    0.8558    magn:    0.0007    constr:    0.0000
     atom:   16    charge:    0.8607    magn:    0.0037    constr:    0.0000
     atom:   17    charge:    0.8681    magn:    0.0134    constr:    0.0000
     atom:   18    charge:    0.8565    magn:    0.0155    constr:    0.0000
     atom:   19    charge:    0.8641    magn:    0.0032    constr:    0.0000
     atom:   20    charge:    0.8575    magn:    0.0004    constr:    0.0000
     atom:   21    charge:    0.8572    magn:    0.0006    constr:    0.0000
     atom:   22    charge:    0.8523    magn:    0.0001    constr:    0.0000
     atom:   23    charge:    0.8491    magn:    0.0004    constr:    0.0000
     atom:   24    charge:    0.8449    magn:    0.0117    constr:    0.0000
     atom:   25    charge:    1.5930    magn:    0.1963    constr:    0.0000
     atom:   26    charge:    0.8565    magn:    0.0155    constr:    0.0000
     atom:   27    charge:    0.8528    magn:    0.0006    constr:    0.0000
     atom:   28    charge:    0.8547    magn:    0.0001    constr:    0.0000
     atom:   29    charge:    0.8523    magn:    0.0006    constr:    0.0000
     atom:   30    charge:    0.8524    magn:    0.0011    constr:    0.0000
     atom:   31    charge:    0.8510    magn:    0.0054    constr:    0.0000
     atom:   32    charge:    0.8449    magn:    0.0117    constr:    0.0000
     atom:   33    charge:    0.8680    magn:    0.0134    constr:    0.0000
     atom:   34    charge:    0.8479    magn:    0.0073    constr:    0.0000
     atom:   35    charge:    0.8522    magn:    0.0012    constr:    0.0000
     atom:   36    charge:    0.8517    magn:    0.0003    constr:    0.0000
     atom:   37    charge:    0.8509    magn:    0.0003    constr:    0.0000
     atom:   38    charge:    0.8524    magn:    0.0011    constr:    0.0000
     atom:   39    charge:    0.8491    magn:    0.0004    constr:    0.0000
     atom:   40    charge:    0.8607    magn:    0.0037    constr:    0.0000
     atom:   41    charge:    0.8569    magn:    0.0003    constr:    0.0000
     atom:   42    charge:    0.8513    magn:    0.0014    constr:    0.0000
     atom:   43    charge:    0.8517    magn:    0.0006    constr:    0.0000
     atom:   44    charge:    0.8517    magn:    0.0003    constr:    0.0000
     atom:   45    charge:    0.8523    magn:    0.0006    constr:    0.0000
     atom:   46    charge:    0.8523    magn:    0.0001    constr:    0.0000
     atom:   47    charge:    0.8558    magn:    0.0007    constr:    0.0000
     atom:   48    charge:    0.8556    magn:    0.0006    constr:    0.0000
     atom:   49    charge:    0.8567    magn:   -0.0000    constr:    0.0000
     atom:   50    charge:    2.6633    magn:    0.0005    constr:    0.0000
     atom:   51    charge:    2.6637    magn:   -0.0005    constr:    0.0000
     atom:   52    charge:    2.6520    magn:    0.0057    constr:    0.0000
     atom:   53    charge:    2.6627    magn:    0.0008    constr:    0.0000
     atom:   54    charge:    2.6639    magn:    0.0004    constr:    0.0000
     atom:   55    charge:    2.6546    magn:    0.0006    constr:    0.0000
     atom:   56    charge:    2.6577    magn:    0.0002    constr:    0.0000
     atom:   57    charge:    2.6597    magn:    0.0019    constr:    0.0000
     atom:   58    charge:    2.6599    magn:    0.0080    constr:    0.0000
     atom:   59    charge:    2.6534    magn:    0.0203    constr:    0.0000
     atom:   60    charge:    2.6530    magn:    0.0098    constr:    0.0000
[...]
     atom:   84    charge:    2.6520    magn:    0.0056    constr:    0.0000
     atom:   85    charge:    2.6596    magn:    0.0003    constr:    0.0000
     atom:   86    charge:    2.6587    magn:    0.0000    constr:    0.0000
     atom:   87    charge:    2.6572    magn:    0.0000    constr:    0.0000
     atom:   88    charge:    2.6579    magn:    0.0000    constr:    0.0000
     atom:   89    charge:    2.6629    magn:    0.0032    constr:    0.0000
     atom:   90    charge:    2.6600    magn:    0.0080    constr:    0.0000
     atom:   91    charge:    2.6637    magn:   -0.0005    constr:    0.0000
     atom:   92    charge:    2.6644    magn:   -0.0001    constr:    0.0000
     atom:   93    charge:    2.6596    magn:    0.0003    constr:    0.0000
     atom:   94    charge:    2.6606    magn:    0.0002    constr:    0.0000
     atom:   95    charge:    2.6630    magn:    0.0002    constr:    0.0000
     atom:   96    charge:    2.6627    magn:    0.0002    constr:    0.0000
     atom:   97    charge:    2.6597    magn:    0.0019    constr:    0.0000
     atom:   98    charge:    2.6633    magn:    0.0005    constr:    0.0000

     End of self-consistent calculation

 ------ SPIN UP ------------

[...]

 ------ SPIN DOWN ----------

          k = 0.0000 0.0000 0.0000 ( 77483 PWs)   bands (ev):

   -21.7531 -21.5399 -21.3746 -21.3651 -21.3501 -21.2768 -21.2244 -20.8197
   -20.6374 -20.6168 -20.6011 -20.5272 -20.5125 -20.3985 -20.2674 -20.2637
   -20.2401 -20.0890 -20.0745 -19.5433 -19.3946 -19.3791 -19.3748 -19.3690
   -19.3589 -19.3517 -19.3382 -19.2907 -19.2862 -19.1384 -19.1357 -19.0110
   -18.9492 -18.9487 -18.9100 -18.7446 -18.7314 -18.5255 -18.5196 -18.4993
   -18.4908 -18.4470 -18.3968 -18.3752 -18.3437 -18.3225 -18.3089 -16.3974
   -14.5972 -13.0432 -12.7559 -12.7488 -12.7281 -12.6994 -12.6933 -12.6275
   -12.5399 -12.5073 -12.4997 -12.4494 -12.3851 -12.1252 -12.0430 -12.0361
   -12.0029 -11.9590 -11.9146 -11.5201 -11.3948 -11.3841 -11.3735 -11.3632
   -11.3502 -11.3420 -11.3411 -11.2894 -11.2667 -11.0314 -11.0065 -10.8434
   -10.7018 -10.6908 -10.6526 -10.6207 -10.4780 -10.0448 -10.0054  -9.9848
    -9.9027  -9.8415  -9.7860  -9.3739  -9.2962  -9.2823  -9.2784  -9.2667
    -9.2592  -9.2057  -9.0293  -8.9254  -8.8928  -8.8923  -8.8834  -8.8729
    -8.8648  -8.8623  -8.8347  -8.8269  -8.8053  -8.8053  -8.8052  -8.7878
    -8.7823  -8.7800  -8.7789  -8.7042  -8.6971  -8.6252  -8.6000  -8.5384
    -8.4445  -8.4088  -8.1998  -8.1738  -8.1737  -8.0602  -8.0533  -7.8490
    -7.8235  -7.8003  -7.7751  -7.7647  -7.6842  -7.6402  -7.5347  -7.4927
    -7.4784  -7.4527  -7.4330  -7.4185  -7.3806  -7.3798  -7.3701  -7.3273
    -7.3027  -7.2964  -7.2727  -7.2641  -7.2019  -7.1358  -7.0687  -7.0146
    -7.0111  -6.9814  -6.8342  -6.7624  -6.6219  -6.5202  -6.1744  -6.1643
    -6.1394  -6.1286  -6.0561  -6.0430  -6.0355  -6.0305  -6.0291  -6.0233
    -6.0119  -5.9926  -5.9478  -5.9408  -5.7946  -5.7500  -5.7435  -5.6867
    -5.4776  -5.4201  -5.4071  -5.3854  -5.1893  -5.1763  -5.0728  -5.0046
    -4.7555  -4.7437  -4.7248  -4.7194  -4.6385  -4.6075  -4.5299  -4.4851
    -4.4699  -4.4628  -3.8173  -2.6914   0.1882   0.5393   0.7120   0.7249
     0.7365   0.7541   0.7696   0.7743   0.7918   0.8096   0.8142   0.8207
     0.8315   0.8371   0.8596   0.8743   0.9069   0.9399   0.9417   0.9698
     1.0453   1.1943   1.2538   1.2830   1.2885   1.3204   1.3245   1.3301
     1.3409   1.3450   1.3479   1.3859   1.4099   1.4337   1.4358   1.4401
     1.4471   1.4552   1.4840   1.8877   2.1015   2.1046   2.1139   2.1219
     2.1465   2.3143   2.3327   2.3486   2.4428

     highest occupied, lowest unoccupied level (ev):    -0.2884   -3.8173

!    total energy              =   -1940.19890880 Ry
     Harris-Foulkes estimate   =   -1940.19890881 Ry
     estimated scf accuracy    <          6.5E-09 Ry

     total all-electron energy =     -7770.023386 Ry

     The total energy is the sum of the following terms:

     one-electron contribution =  -10643.03080336 Ry
     hartree contribution      =    5407.28741615 Ry
     xc contribution           =    -430.72144413 Ry
     ewald contribution        =    4369.71099488 Ry
     DFT-D3 Dispersion         =      -0.27010924 Ry
     one-center paw contrib.   =    -643.17496311 Ry

     total magnetization       =     3.00 Bohr mag/cell
     absolute magnetization    =     3.17 Bohr mag/cell

     convergence has been achieved in  16 iterations

     negative rho (up, down):  4.834E-01 1.322E-02

     Forces acting on atoms (cartesian axes, Ry/au):

     atom    1 type  1   force =     0.00005192    0.00007835    0.00000000
     atom    2 type  1   force =    -0.00003744    0.00011016    0.00000000
     atom    3 type  1   force =     0.00002628   -0.00000710    0.00000000
     atom    4 type  1   force =    -0.00004675   -0.00006926    0.00000000
     atom    5 type  1   force =    -0.00001750   -0.00007316    0.00000000
     atom    6 type  1   force =     0.00007965   -0.00001481    0.00000000
     atom    7 type  1   force =     0.00004328    0.00001456    0.00000000
     atom    8 type  1   force =     0.00002667    0.00001558    0.00000000
     atom    9 type  1   force =     0.00005156    0.00009436    0.00000000
     atom   10 type  1   force =     0.00009549    0.00005597    0.00000000
     atom   11 type  1   force =     0.00007458   -0.00004426    0.00000000
     atom   12 type  1   force =     0.00005084   -0.00003374    0.00000000
     atom   13 type  1   force =     0.00002887   -0.00000545    0.00000000
     atom   14 type  1   force =     0.00006171   -0.00003649    0.00000000
     atom   15 type  1   force =    -0.00002189    0.00011425    0.00000000
     atom   16 type  1   force =    -0.00004228    0.00003972    0.00000000
     atom   17 type  1   force =     0.00005049    0.00005275    0.00000000
     atom   18 type  1   force =     0.00009631   -0.00000628    0.00000000
     atom   19 type  1   force =     0.00000915   -0.00000753    0.00000000
     atom   20 type  1   force =     0.00005002   -0.00001587    0.00000000
     atom   21 type  1   force =     0.00005169    0.00005749    0.00000000
     atom   22 type  1   force =     0.00002832    0.00011475    0.00000000
     atom   23 type  1   force =    -0.00000457    0.00017675    0.00000000
     atom   24 type  1   force =    -0.00005365    0.00006415    0.00000000
     atom   25 type  4   force =     0.00005255   -0.00002261    0.00000000
     atom   26 type  1   force =     0.00005444   -0.00008924    0.00000000
     atom   27 type  1   force =     0.00006941   -0.00004501    0.00000000
     atom   28 type  1   force =     0.00001480    0.00007897    0.00000000
     atom   29 type  1   force =     0.00002044    0.00012559    0.00000000
     atom   30 type  1   force =     0.00004382    0.00008350    0.00000000
     atom   31 type  1   force =    -0.00006049    0.00003173    0.00000000
     atom   32 type  1   force =    -0.00008386    0.00001080    0.00000000
     atom   33 type  1   force =    -0.00002850   -0.00008397    0.00000000
     atom   34 type  1   force =    -0.00000864   -0.00012785    0.00000000
     atom   35 type  1   force =     0.00000042   -0.00001644    0.00000000
     atom   36 type  1   force =    -0.00012111    0.00008170    0.00000000
     atom   37 type  1   force =    -0.00004905    0.00003178    0.00000000
     atom   38 type  1   force =    -0.00004707   -0.00008371    0.00000000
     atom   39 type  1   force =    -0.00015440   -0.00009450    0.00000000
     atom   40 type  1   force =    -0.00006085   -0.00000761    0.00000000
     atom   41 type  1   force =    -0.00006814   -0.00011368    0.00000000
     atom   42 type  1   force =    -0.00012530   -0.00000466    0.00000000
     atom   43 type  1   force =    -0.00008976    0.00007929    0.00000000
     atom   44 type  1   force =    -0.00010876    0.00007097    0.00000000
     atom   45 type  1   force =    -0.00008294   -0.00009381    0.00000000
     atom   46 type  1   force =    -0.00008292   -0.00009558    0.00000000
     atom   47 type  1   force =    -0.00010877   -0.00005015    0.00000000
     atom   48 type  1   force =     0.00000907   -0.00002787    0.00000000
     atom   49 type  1   force =    -0.00002155   -0.00003289    0.00000000
     atom   50 type  2   force =     0.00004684   -0.00007097    0.00000000
     atom   51 type  2   force =     0.00006209   -0.00006778    0.00000000
     atom   52 type  2   force =     0.00005702    0.00001513    0.00000000
     atom   53 type  2   force =    -0.00000250   -0.00000005    0.00000000
     atom   54 type  2   force =    -0.00003315   -0.00007059    0.00000000
     atom   55 type  2   force =    -0.00003562   -0.00003158    0.00000000
     atom   56 type  2   force =    -0.00001682   -0.00001065    0.00000000
     atom   57 type  2   force =    -0.00000149   -0.00005079    0.00000000
     atom   58 type  2   force =     0.00002055   -0.00015364    0.00000000
     atom   59 type  2   force =     0.00009984   -0.00006093    0.00000000
     atom   60 type  2   force =     0.00011295    0.00006270    0.00000000
[...]
     atom   84 type  2   force =     0.00003604   -0.00005569    0.00000000
     atom   85 type  2   force =    -0.00004226   -0.00003496    0.00000000
     atom   86 type  2   force =    -0.00002307   -0.00000146    0.00000000
     atom   87 type  2   force =    -0.00001965   -0.00003491    0.00000000
     atom   88 type  2   force =    -0.00004624    0.00001386    0.00000000
     atom   89 type  2   force =    -0.00001322    0.00005805    0.00000000
     atom   90 type  2   force =     0.00013567    0.00008157    0.00000000
     atom   91 type  2   force =     0.00008243   -0.00003448    0.00000000
     atom   92 type  2   force =     0.00006452   -0.00007720    0.00000000
     atom   93 type  2   force =    -0.00001724    0.00002953    0.00000000
     atom   94 type  2   force =     0.00002551    0.00002908    0.00000000
     atom   95 type  2   force =     0.00000259   -0.00006003    0.00000000
     atom   96 type  2   force =    -0.00005905   -0.00000427    0.00000000
     atom   97 type  2   force =     0.00003233    0.00003058    0.00000000
     atom   98 type  2   force =     0.00005627   -0.00003565    0.00000000

     Total force =     0.000855     Total SCF correction =     0.000144
     SCF correction compared to forces is large: reduce conv_thr to get better values

     Computing stress (Cartesian axis) and pressure

     negative rho (up, down):  4.834E-01 1.322E-02
          total   stress  (Ry/bohr**3)                   (kbar)     P=   -0.18
  -0.00000019   0.00000001   0.00000000         -0.03      0.00      0.00
   0.00000001  -0.00000018   0.00000000          0.00     -0.03      0.00
   0.00000000   0.00000000  -0.00000334          0.00      0.00     -0.49

     Writing output data file C2Cn.save/

     General routines

     Parallel routines

   This run was terminated on:  20: 2:19   8Jun2021

   JOB DONE.