     Program PWSCF v.6.4.1 starts on  1Aug2021 at  4:33: 0

     R & G space division:  proc/nbgrp/npool/nimage =     128
     Waiting for input...
     Reading input from standard input

     Current dimensions of program PWSCF are:
     Max number of different atomic species (ntypx) = 10
     Max number of k-points (npk) =  40000
     Max angular momentum in pseudopotentials (lmaxx) =  3

     IMPORTANT: XC functional enforced from input :
     Exchange-correlation      = HSE ( 1  4 12  4 0 0)
     EXX-fraction              =        0.25
     Any further DFT definition will be discarded
     Please, verify this is what you really want

               file N.pbe-n-kjpaw_psl.1.0.0.UPF: wavefunction(s)  2S renormalized
               file C.pbe-n-kjpaw_psl.1.0.0.UPF: wavefunction(s)  2S 2P renormalized
               file C.pbe-n-kjpaw_psl.1.0.0.UPF: wavefunction(s)  2S 2P renormalized
               file C.pbe-n-kjpaw_psl.1.0.0.UPF: wavefunction(s)  2S 2P renormalized
     EXX fraction changed:   0.32
     EXX Screening parameter changed:    0.0455000

     Parameters for DFT-D3 Dispersion Correction:
       Reference C6 values for interpolation:

         atom   Coordination number   C6
         B          0.000           214.36
         B          0.971           150.74
         B          1.944           106.23
         B          2.913            62.89
         B          4.586            56.06
         C1         0.000            98.23
         C1         0.987            86.49
         C1         1.998            58.72
         C1         2.999            51.56
         C1         3.984            36.41
         C2         0.000            98.23
         C2         0.987            86.49
         C2         1.998            58.72
         C2         2.999            51.56
         C2         3.984            36.41
         C3         0.000            98.23
         C3         0.987            86.49
         C3         1.998            58.72
         C3         2.999            51.56
         C3         3.984            36.41
         N          0.000            50.54
         N          0.994            44.25
         N          2.014            39.35
         N          2.990            31.16

       Values used:

         atom   Coordination number  R0_AB[au]  C6      C8
         B          3.326            3.039     62.90   2506.22
         B          3.317            3.039     62.90   2506.43
         B          3.318            3.039     62.90   2506.42
         B          3.323            3.039     62.90   2506.29
         B          3.325            3.039     62.90   2506.26
         B          3.323            3.039     62.90   2506.30
         B          3.326            3.039     62.90   2506.24
         B          3.323            3.039     62.90   2506.29
         B          3.322            3.039     62.90   2506.32
         B          3.307            3.039     62.91   2506.67
         B          3.318            3.039     62.90   2506.42
         B          3.324            3.039     62.90   2506.27
         B          3.322            3.039     62.90   2506.31
         B          3.323            3.039     62.90   2506.30
         B          3.323            3.039     62.90   2506.30
         B          3.324            3.039     62.90   2506.27
         B          3.294            3.039     62.92   2506.95
         B          3.280            3.039     62.92   2507.27
         B          3.319            3.039     62.90   2506.40
         B          3.324            3.039     62.90   2506.27
         B          3.325            3.039     62.90   2506.26
         B          3.322            3.039     62.90   2506.33
         B          3.317            3.039     62.90   2506.43
         B          3.306            3.039     62.91   2506.69
         C2         3.239            2.750     49.57   1433.52
         B          3.280            3.039     62.92   2507.27
         B          3.318            3.039     62.90   2506.42
         B          3.323            3.039     62.90   2506.29
         B          3.320            3.039     62.90   2506.38
         B          3.317            3.039     62.90   2506.45
         B          3.308            3.039     62.91   2506.65
         B          3.306            3.039     62.91   2506.69
         B          3.294            3.039     62.92   2506.95
         B          3.307            3.039     62.91   2506.67
         B          3.318            3.039     62.90   2506.42
         B          3.316            3.039     62.90   2506.46
         B          3.317            3.039     62.90   2506.45
         B          3.317            3.039     62.90   2506.45
         B          3.317            3.039     62.90   2506.43
         B          3.324            3.039     62.90   2506.27
         B          3.322            3.039     62.90   2506.32
         B          3.317            3.039     62.90   2506.43
         B          3.319            3.039     62.90   2506.39
         B          3.316            3.039     62.90   2506.46
         B          3.320            3.039     62.90   2506.38
         B          3.322            3.039     62.90   2506.33
         B          3.323            3.039     62.90   2506.30
         B          3.323            3.039     62.90   2506.29
         B          3.326            3.039     62.90   2506.22
         N          3.129            2.478     31.22    688.74
         N          3.129            2.478     31.22    688.75
         N          3.126            2.478     31.22    688.78
         N          3.128            2.478     31.22    688.76
         N          3.129            2.478     31.22    688.74
         N          3.128            2.478     31.22    688.75
         N          3.128            2.478     31.22    688.75
         N          3.128            2.478     31.22    688.75
         N          3.129            2.478     31.22    688.75
         N          3.125            2.478     31.22    688.78
         N          3.123            2.478     31.22    688.80
[...]
         N          3.126            2.478     31.22    688.78
         N          3.127            2.478     31.22    688.77
         N          3.126            2.478     31.22    688.77
         N          3.126            2.478     31.22    688.77
         N          3.127            2.478     31.22    688.77
         N          3.129            2.478     31.22    688.75
         N          3.129            2.478     31.22    688.75
         N          3.129            2.478     31.22    688.75
         N          3.129            2.478     31.22    688.74
         N          3.127            2.478     31.22    688.77
         N          3.127            2.478     31.22    688.77
         N          3.128            2.478     31.22    688.75
         N          3.129            2.478     31.22    688.75
         N          3.128            2.478     31.22    688.75
         N          3.129            2.478     31.22    688.74

         Molecular C6 ( Ry / a.u.^6 ) =    437748.95

     gamma-point specific algorithms are used
     Message from routine setup :
     BEWARE: nonlinear core correction is not consistent with hybrid XC

     EXX: grid of k+q points same as grid of k-points

     bravais-lattice index     =            0
     lattice parameter (alat)  =      33.2346  a.u.
     unit-cell volume          =   36233.0935 (a.u.)^3
     number of atoms/cell      =           98
     number of atomic types    =            5
     number of electrons       =       391.00
     number of Kohn-Sham states=          245
     kinetic-energy cutoff     =      25.7300  Ry
     charge density cutoff     =     102.9200  Ry
     cutoff for Fock operator  =     102.9200  Ry
     convergence threshold     =      1.0E-02
     mixing beta               =       0.7000
     number of iterations used =            8  plain     mixing
     Exchange-correlation      = HSE ( 1  4 12  4 0 0)
     EXX-fraction              =        0.32

     celldm(1)=  33.234611  celldm(2)=   0.000000  celldm(3)=   0.000000
     celldm(4)=   0.000000  celldm(5)=   0.000000  celldm(6)=   0.000000

     crystal axes: (cart. coord. in units of alat)
               a(1) = (   1.001012   0.000172   0.000000 )
               a(2) = (  -0.500357   0.866988   0.000000 )
               a(3) = (   0.000000   0.000000   1.137204 )

     reciprocal axes: (cart. coord. in units 2 pi/alat)
               b(1) = (  0.998890  0.576480  0.000000 )
               b(2) = ( -0.000199  1.153304  0.000000 )
               b(3) = (  0.000000  0.000000  0.879350 )

     PseudoPot. # 1 for B  read from file:
     ./pseudo/B.pbe-n-kjpaw_psl.1.0.0.UPF
     MD5 check sum: 8c825a5969375aca5c2c6ad5945b3059
     Pseudo is Projector augmented-wave + core cor, Zval =  3.0
     Generated using "atomic" code by A. Dal Corso v.6.3
     Shape of augmentation charge: PSQ
     Using radial grid of 1059 points,  4 beta functions with:
                l(1) =   0
                l(2) =   0
                l(3) =   1
                l(4) =   1
     Q(r) pseudized with 0 coefficients

     PseudoPot. # 2 for N  read from file:
     ./pseudo/N.pbe-n-kjpaw_psl.1.0.0.UPF
     MD5 check sum: 14c48229446f9f2d411169a3abcbc3fa
     Pseudo is Projector augmented-wave + core cor, Zval =  5.0
     Generated using "atomic" code by A. Dal Corso v.6.3
     Shape of augmentation charge: PSQ
     Using radial grid of 1085 points,  4 beta functions with:
                l(1) =   0
                l(2) =   0
                l(3) =   1
                l(4) =   1
     Q(r) pseudized with 0 coefficients

     PseudoPot. # 3 for C  read from file:
     ./pseudo/C.pbe-n-kjpaw_psl.1.0.0.UPF
     MD5 check sum: 5f16ad9a65e90284d1d834d4ab3b0f7d
     Pseudo is Projector augmented-wave + core cor, Zval =  4.0
     Generated using "atomic" code by A. Dal Corso v.6.3
     Shape of augmentation charge: PSQ
     Using radial grid of 1073 points,  4 beta functions with:
                l(1) =   0
                l(2) =   0
                l(3) =   1
                l(4) =   1
     Q(r) pseudized with 0 coefficients

[...]

     PseudoPot. # 5 for C  read from file:
     ./pseudo/C.pbe-n-kjpaw_psl.1.0.0.UPF
     MD5 check sum: 5f16ad9a65e90284d1d834d4ab3b0f7d
     Pseudo is Projector augmented-wave + core cor, Zval =  4.0
     Generated using "atomic" code by A. Dal Corso v.6.3
     Shape of augmentation charge: PSQ
     Using radial grid of 1073 points,  4 beta functions with:
                l(1) =   0
                l(2) =   0
                l(3) =   1
                l(4) =   1
     Q(r) pseudized with 0 coefficients

     atomic species   valence    mass     pseudopotential
        B              3.00    10.00000     B ( 1.00)
        N              5.00    14.00000     N ( 1.00)
        C1             4.00    12.00000     C ( 1.00)
        C2             4.00    12.00000     C ( 1.00)
        C3             4.00    12.00000     C ( 1.00)

     Starting magnetic structure
     atomic species   magnetization
        B            0.000
        N            0.000
        C1           1.000
[...]
     atom:    2    charge:    0.8528    magn:   -0.0010    constr:    0.0000
     atom:    3    charge:    0.8532    magn:   -0.0019    constr:    0.0000
     atom:    4    charge:    0.8547    magn:   -0.0000    constr:    0.0000
     atom:    5    charge:    0.8572    magn:   -0.0002    constr:    0.0000
     atom:    6    charge:    0.8573    magn:   -0.0003    constr:    0.0000
     atom:    7    charge:    0.8568    magn:    0.0007    constr:    0.0000
     atom:    8    charge:    0.8545    magn:   -0.0005    constr:    0.0000
     atom:    9    charge:    0.8566    magn:    0.0006    constr:    0.0000
     atom:   10    charge:    0.8444    magn:   -0.0035    constr:    0.0000
     atom:   11    charge:    0.8532    magn:   -0.0009    constr:    0.0000
     atom:   12    charge:    0.8560    magn:   -0.0009    constr:    0.0000
     atom:   13    charge:    0.8532    magn:    0.0000    constr:    0.0000
     atom:   14    charge:    0.8573    magn:   -0.0005    constr:    0.0000
     atom:   15    charge:    0.8560    magn:    0.0004    constr:    0.0000
     atom:   16    charge:    0.8577    magn:   -0.0003    constr:    0.0000
     atom:   17    charge:    0.8653    magn:   -0.0050    constr:    0.0000
     atom:   18    charge:    0.8528    magn:   -0.0105    constr:    0.0000
     atom:   19    charge:    0.8640    magn:   -0.0012    constr:    0.0000
     atom:   20    charge:    0.8560    magn:   -0.0010    constr:    0.0000
     atom:   21    charge:    0.8574    magn:   -0.0006    constr:    0.0000
     atom:   22    charge:    0.8527    magn:   -0.0001    constr:    0.0000
     atom:   23    charge:    0.8504    magn:   -0.0009    constr:    0.0000
     atom:   24    charge:    0.8452    magn:    0.0004    constr:    0.0000
     atom:   25    charge:    1.5729    magn:    0.0335    constr:    0.0000
     atom:   26    charge:    0.8529    magn:   -0.0090    constr:    0.0000
     atom:   27    charge:    0.8535    magn:   -0.0012    constr:    0.0000
     atom:   28    charge:    0.8550    magn:   -0.0002    constr:    0.0000
     atom:   29    charge:    0.8524    magn:   -0.0004    constr:    0.0000
     atom:   30    charge:    0.8526    magn:    0.0000    constr:    0.0000
     atom:   31    charge:    0.8510    magn:    0.0016    constr:    0.0000
     atom:   32    charge:    0.8448    magn:    0.0014    constr:    0.0000
     atom:   33    charge:    0.8655    magn:   -0.0023    constr:    0.0000
     atom:   34    charge:    0.8447    magn:   -0.0035    constr:    0.0000
     atom:   35    charge:    0.8532    magn:   -0.0013    constr:    0.0000
     atom:   36    charge:    0.8512    magn:   -0.0008    constr:    0.0000
     atom:   37    charge:    0.8533    magn:    0.0002    constr:    0.0000
     atom:   38    charge:    0.8523    magn:    0.0008    constr:    0.0000
     atom:   39    charge:    0.8505    magn:   -0.0007    constr:    0.0000
     atom:   40    charge:    0.8578    magn:   -0.0000    constr:    0.0000
     atom:   41    charge:    0.8562    magn:    0.0006    constr:    0.0000
     atom:   42    charge:    0.8528    magn:   -0.0005    constr:    0.0000
     atom:   43    charge:    0.8504    magn:   -0.0002    constr:    0.0000
     atom:   44    charge:    0.8513    magn:   -0.0008    constr:    0.0000
     atom:   45    charge:    0.8522    magn:   -0.0003    constr:    0.0000
     atom:   46    charge:    0.8526    magn:    0.0001    constr:    0.0000
     atom:   47    charge:    0.8556    magn:    0.0010    constr:    0.0000
     atom:   48    charge:    0.8546    magn:   -0.0004    constr:    0.0000
     atom:   49    charge:    0.8581    magn:   -0.0004    constr:    0.0000
     atom:   50    charge:    2.6980    magn:    0.0057    constr:    0.0000
     atom:   51    charge:    2.6924    magn:   -0.0003    constr:    0.0000
     atom:   52    charge:    2.6881    magn:    0.0145    constr:    0.0000
     atom:   53    charge:    2.6805    magn:    0.0199    constr:    0.0000
     atom:   54    charge:    2.6953    magn:    0.0003    constr:    0.0000
     atom:   55    charge:    2.6962    magn:    0.0019    constr:    0.0000
     atom:   56    charge:    2.6961    magn:    0.0027    constr:    0.0000
     atom:   57    charge:    2.6926    magn:   -0.0005    constr:    0.0000
     atom:   58    charge:    2.6881    magn:    0.0061    constr:    0.0000
     atom:   59    charge:    2.6727    magn:    0.0243    constr:    0.0000
     atom:   60    charge:    2.6829    magn:   -0.0146    constr:    0.0000
[...]
     atom:   84    charge:    2.6886    magn:    0.0116    constr:    0.0000
     atom:   85    charge:    2.6903    magn:    0.0027    constr:    0.0000
     atom:   86    charge:    2.6859    magn:    0.0076    constr:    0.0000
     atom:   87    charge:    2.6904    magn:    0.0008    constr:    0.0000
     atom:   88    charge:    2.6929    magn:   -0.0005    constr:    0.0000
     atom:   89    charge:    2.6915    magn:    0.0037    constr:    0.0000
     atom:   90    charge:    2.6878    magn:    0.0063    constr:    0.0000
     atom:   91    charge:    2.6914    magn:    0.0008    constr:    0.0000
     atom:   92    charge:    2.6969    magn:    0.0123    constr:    0.0000
     atom:   93    charge:    2.6832    magn:    0.0093    constr:    0.0000
     atom:   94    charge:    2.6991    magn:    0.0001    constr:    0.0000
     atom:   95    charge:    2.6915    magn:    0.0045    constr:    0.0000
     atom:   96    charge:    2.7032    magn:    0.0008    constr:    0.0000
     atom:   97    charge:    2.6942    magn:    0.0007    constr:    0.0000
     atom:   98    charge:    2.7006    magn:    0.0009    constr:    0.0000

     End of self-consistent calculation

 ------ SPIN UP ------------

          k = 0.0000 0.0000 0.0000 ( 39989 PWs)   bands (ev):

[...]

 ------ SPIN DOWN ----------

[...]

     highest occupied, lowest unoccupied level (ev):    -4.9610   -4.9532

!    total energy              =   -1937.62144879 Ry
     Harris-Foulkes estimate   =   -1937.62604117 Ry
     estimated scf accuracy    <       0.00535889 Ry

[...]

     convergence has been achieved in  13 iterations

     Using ACE for calculation of exact exchange

[...]

     EXX: now go back to refine exchange calculation

[...]

     total energy              =   -1713.12759925 Ry
     Harris-Foulkes estimate   =   -1713.13464266 Ry
     est. exchange err (dexx)  =       0.09772403 Ry
     - averaged Fock potential =     193.20944403 Ry
     + Fock energy (ACE)       =     -96.76768210 Ry

[...]

     total energy              =   -1713.08210332 Ry
     Harris-Foulkes estimate   =   -1713.08636859 Ry
     est. exchange err (dexx)  =       0.01047292 Ry
     - averaged Fock potential =     193.42632623 Ry
     + Fock energy (ACE)       =     -96.71937350 Ry

     EXX: now go back to refine exchange calculation

     Self-consistent Calculation

[...]

     iteration #  4     ecut=    25.73 Ry     beta= 0.70
     CG style diagonalization
     ethr =  2.46E-05,  avg # of iterations =  3.2

[...]

     total energy              =   -1713.07632359 Ry
     Harris-Foulkes estimate   =   -1713.07774248 Ry
     estimated scf accuracy    <       0.01146848 Ry

[...]

     iteration #  6     ecut=    25.73 Ry     beta= 0.70
     CG style diagonalization
     c_bands:  2 eigenvalues not converged
     ethr =  2.93E-06,  avg # of iterations =  3.2

     negative rho (up, down):  3.048E+00 4.543E-02

     Magnetic moment per site:
     atom:    1    charge:    0.8285    magn:   -0.0047    constr:    0.0000
     atom:    2    charge:    0.8225    magn:   -0.0028    constr:    0.0000
     atom:    3    charge:    0.8225    magn:   -0.0015    constr:    0.0000
     atom:    4    charge:    0.8243    magn:   -0.0002    constr:    0.0000
     atom:    5    charge:    0.8268    magn:   -0.0005    constr:    0.0000
     atom:    6    charge:    0.8268    magn:   -0.0015    constr:    0.0000
     atom:    7    charge:    0.8272    magn:   -0.0034    constr:    0.0000
     atom:    8    charge:    0.8242    magn:   -0.0027    constr:    0.0000
     atom:    9    charge:    0.8264    magn:   -0.0023    constr:    0.0000
     atom:   10    charge:    0.8138    magn:   -0.0041    constr:    0.0000
     atom:   11    charge:    0.8227    magn:   -0.0006    constr:    0.0000
     atom:   12    charge:    0.8253    magn:   -0.0001    constr:    0.0000
     atom:   13    charge:    0.8225    magn:    0.0001    constr:    0.0000
     atom:   14    charge:    0.8269    magn:   -0.0017    constr:    0.0000
     atom:   15    charge:    0.8255    magn:   -0.0003    constr:    0.0000
     atom:   16    charge:    0.8273    magn:   -0.0008    constr:    0.0000
     atom:   17    charge:    0.8376    magn:   -0.0027    constr:    0.0000
     atom:   18    charge:    0.8236    magn:   -0.0069    constr:    0.0000
     atom:   19    charge:    0.8332    magn:   -0.0009    constr:    0.0000
     atom:   20    charge:    0.8253    magn:   -0.0003    constr:    0.0000
     atom:   21    charge:    0.8268    magn:   -0.0005    constr:    0.0000
     atom:   22    charge:    0.8216    magn:    0.0006    constr:    0.0000
     atom:   23    charge:    0.8197    magn:   -0.0005    constr:    0.0000
     atom:   24    charge:    0.8145    magn:    0.0012    constr:    0.0000
     atom:   25    charge:    1.5367    magn:    0.0530    constr:    0.0000
     atom:   26    charge:    0.8231    magn:   -0.0074    constr:    0.0000
     atom:   27    charge:    0.8229    magn:   -0.0009    constr:    0.0000
     atom:   28    charge:    0.8244    magn:   -0.0003    constr:    0.0000
     atom:   29    charge:    0.8217    magn:   -0.0004    constr:    0.0000
     atom:   30    charge:    0.8218    magn:    0.0004    constr:    0.0000
     atom:   31    charge:    0.8204    magn:    0.0015    constr:    0.0000
     atom:   32    charge:    0.8145    magn:    0.0002    constr:    0.0000
     atom:   33    charge:    0.8363    magn:   -0.0029    constr:    0.0000
     atom:   34    charge:    0.8136    magn:   -0.0043    constr:    0.0000
     atom:   35    charge:    0.8227    magn:   -0.0021    constr:    0.0000
     atom:   36    charge:    0.8211    magn:   -0.0027    constr:    0.0000
     atom:   37    charge:    0.8224    magn:   -0.0002    constr:    0.0000
     atom:   38    charge:    0.8219    magn:    0.0001    constr:    0.0000
     atom:   39    charge:    0.8195    magn:   -0.0003    constr:    0.0000
     atom:   40    charge:    0.8269    magn:   -0.0006    constr:    0.0000
     atom:   41    charge:    0.8265    magn:   -0.0030    constr:    0.0000
     atom:   42    charge:    0.8224    magn:   -0.0031    constr:    0.0000
     atom:   43    charge:    0.8205    magn:   -0.0050    constr:    0.0000
     atom:   44    charge:    0.8210    magn:   -0.0025    constr:    0.0000
     atom:   45    charge:    0.8214    magn:   -0.0001    constr:    0.0000
     atom:   46    charge:    0.8215    magn:    0.0008    constr:    0.0000
     atom:   47    charge:    0.8255    magn:   -0.0004    constr:    0.0000
     atom:   48    charge:    0.8242    magn:   -0.0032    constr:    0.0000
     atom:   49    charge:    0.8287    magn:   -0.0050    constr:    0.0000
     atom:   50    charge:    2.6716    magn:    0.0168    constr:    0.0000
     atom:   51    charge:    2.6631    magn:    0.0142    constr:    0.0000
     atom:   52    charge:    2.6596    magn:    0.0332    constr:    0.0000
     atom:   53    charge:    2.6662    magn:    0.0014    constr:    0.0000
     atom:   54    charge:    2.6677    magn:    0.0011    constr:    0.0000
     atom:   55    charge:    2.6696    magn:    0.0047    constr:    0.0000
     atom:   56    charge:    2.6505    magn:    0.0464    constr:    0.0000
     atom:   57    charge:    2.6644    magn:    0.0086    constr:    0.0000
     atom:   58    charge:    2.6513    magn:    0.0393    constr:    0.0000
     atom:   59    charge:    2.6595    magn:    0.0076    constr:    0.0000
     atom:   60    charge:    2.6586    magn:   -0.0070    constr:    0.0000
[...]
     atom:   84    charge:    2.6600    magn:    0.0285    constr:    0.0000
     atom:   85    charge:    2.6586    magn:    0.0215    constr:    0.0000
     atom:   86    charge:    2.6544    magn:    0.0303    constr:    0.0000
     atom:   87    charge:    2.6663    magn:    0.0004    constr:    0.0000
     atom:   88    charge:    2.6661    magn:   -0.0001    constr:    0.0000
     atom:   89    charge:    2.6629    magn:    0.0084    constr:    0.0000
     atom:   90    charge:    2.6519    magn:    0.0346    constr:    0.0000
     atom:   91    charge:    2.6665    magn:    0.0083    constr:    0.0000
     atom:   92    charge:    2.6477    magn:    0.0886    constr:    0.0000
     atom:   93    charge:    2.6620    magn:    0.0142    constr:    0.0000
     atom:   94    charge:    2.6706    magn:    0.0058    constr:    0.0000
     atom:   95    charge:    2.6674    magn:    0.0011    constr:    0.0000
     atom:   96    charge:    2.6739    magn:    0.0073    constr:    0.0000
     atom:   97    charge:    2.6649    magn:    0.0036    constr:    0.0000
     atom:   98    charge:    2.6697    magn:    0.0266    constr:    0.0000

     End of self-consistent calculation

 ------ SPIN UP ------------

[...]

 ------ SPIN DOWN ----------

          k = 0.0000 0.0000 0.0000 ( 39989 PWs)   bands (ev):

   -25.8647 -25.6747 -25.3817 -25.3685 -25.3406 -25.2726 -25.1662 -24.8311
   -24.5652 -24.5560 -24.5402 -24.4689 -24.4195 -24.2746 -24.1743 -24.1672
   -24.1254 -24.0193 -23.9492 -23.4565 -23.2339 -23.2049 -23.2021 -23.1963
   -23.1838 -23.1406 -23.1275 -23.0961 -23.0925 -22.9551 -22.9186 -22.7885
   -22.7544 -22.7300 -22.6580 -22.5288 -22.4903 -22.3079 -22.2593 -22.2430
   -22.2227 -22.2201 -22.1678 -22.0409 -22.0359 -21.9812 -21.9746 -20.6377
   -18.7269 -16.2595 -15.7620 -15.7524 -15.7089 -15.6724 -15.6371 -15.5528
   -15.4193 -15.4082 -15.3988 -15.3931 -15.3181 -15.0748 -14.9819 -14.9507
   -14.9051 -14.8609 -14.8338 -14.3681 -14.2576 -14.2297 -14.1928 -14.1732
   -14.1583 -14.1478 -14.1346 -14.0851 -14.0559 -13.9328 -13.8585 -13.6096
   -13.4558 -13.4412 -13.3390 -13.3232 -13.1998 -12.7060 -12.6696 -12.6369
   -12.5670 -12.5286 -12.4547 -11.9909 -11.9312 -11.9172 -11.8744 -11.8526
   -11.8185 -11.8170 -11.6384 -11.4793 -11.4634 -11.4298 -11.4091 -11.4023
   -11.3988 -11.3839 -11.3760 -11.3659 -11.3554 -11.3355 -11.3337 -11.3036
   -11.2315 -11.2302 -11.2071 -11.2010 -11.1846 -11.1604 -11.1273 -11.0617
   -10.9921 -10.9757 -10.6913 -10.6827 -10.6800 -10.6011 -10.5489 -10.3818
   -10.1907 -10.0661 -10.0381 -10.0274  -9.9791  -9.9670  -9.9541  -9.8895
    -9.8772  -9.8641  -9.8143  -9.7940  -9.7585  -9.7525  -9.7034  -9.6715
    -9.5988  -9.5710  -9.5226  -9.4858  -9.4796  -9.4383  -9.4164  -9.3856
    -9.3469  -9.3125  -9.2514  -9.1620  -8.9499  -8.9140  -8.4156  -8.3941
    -8.3874  -8.3493  -8.2562  -8.1207  -8.0636  -8.0425  -8.0152  -7.9874
    -7.9810  -7.9709  -7.9595  -7.9486  -7.9335  -7.9287  -7.7982  -7.7262
    -7.4547  -7.4154  -7.3818  -7.3092  -7.2971  -7.2825  -7.2304  -7.1318
    -6.6071  -6.5546  -6.5189  -6.4795  -6.4583  -6.3778  -6.2767  -6.2218
    -6.1679  -6.1165  -5.8069  -5.2325  -0.2126   0.1679   0.2728   0.3906
     0.4250   0.4278   0.4394   0.4517   0.4555   0.4579   0.8220   0.8285
     0.8393   0.8479   0.8508   0.8526   1.0403   1.0425   1.0477   1.0527
     1.0566   1.0601   1.1364   1.1727   1.1784   1.1873   1.2005   1.2814
     1.3984   1.4590   1.4687   1.4763   1.5324   1.5474   1.6224   1.6800
     1.7121   1.7275   1.7299   1.7340   1.7358   1.7378   1.7390   1.7418
     1.7888   1.8017   1.8325   2.0860   2.0953

     highest occupied, lowest unoccupied level (ev):    -5.8842   -5.8069

!    total energy              =   -1713.07123573 Ry
     Harris-Foulkes estimate   =   -1713.07664478 Ry
     estimated scf accuracy    <       0.00596229 Ry

     total magnetization       =     1.00 Bohr mag/cell
     absolute magnetization    =     3.29 Bohr mag/cell

     convergence has been achieved in   6 iterations

     Using ACE for calculation of exact exchange

!!   total energy              =   -1713.08119747 Ry
     Harris-Foulkes estimate   =   -1713.08660652 Ry
     est. exchange err (dexx)  =       0.00996174 Ry
     - averaged Fock potential =     193.42860758 Ry
     + Fock energy (ACE)       =     -96.71919581 Ry

     EXX self-consistency reached

     Writing output data file C2Cn.save/

     General routines

     Parallel routines

     EXX routines

     EXX+US  routines

     EXX+PAW routines

   This run was terminated on:  13:51:56   1Aug2021

   JOB DONE.