     Program PWSCF v.6.4.1 starts on 29Jul2021 at 23:25:36

     R & G space division:  proc/nbgrp/npool/nimage =      64
     Waiting for input...
     Reading input from standard input

     Current dimensions of program PWSCF are:
     Max number of different atomic species (ntypx) = 10
     Max number of k-points (npk) =  40000
     Max angular momentum in pseudopotentials (lmaxx) =  3

     IMPORTANT: XC functional enforced from input :
     Exchange-correlation      = HSE ( 1  4 12  4 0 0)
     EXX-fraction              =        0.25
     Any further DFT definition will be discarded
     Please, verify this is what you really want

               file N.pbe-n-kjpaw_psl.1.0.0.UPF: wavefunction(s)  2S renormalized
               file C.pbe-n-kjpaw_psl.1.0.0.UPF: wavefunction(s)  2S 2P renormalized
               file C.pbe-n-kjpaw_psl.1.0.0.UPF: wavefunction(s)  2S 2P renormalized
               file C.pbe-n-kjpaw_psl.1.0.0.UPF: wavefunction(s)  2S 2P renormalized
     EXX fraction changed:   0.32
     EXX Screening parameter changed:    0.0455000

     Parameters for DFT-D3 Dispersion Correction:
       Reference C6 values for interpolation:

         atom   Coordination number   C6
         B          0.000           214.36
         B          0.971           150.74
         B          1.944           106.23
         B          2.913            62.89
         B          4.586            56.06
         C1         0.000            98.23
         C1         0.987            86.49
         C1         1.998            58.72
         C1         2.999            51.56
         C1         3.984            36.41
         C2         0.000            98.23
         C2         0.987            86.49
         C2         1.998            58.72
         C2         2.999            51.56
         C2         3.984            36.41
         C3         0.000            98.23
         C3         0.987            86.49
         C3         1.998            58.72
         C3         2.999            51.56
         C3         3.984            36.41
         N          0.000            50.54
         N          0.994            44.25
         N          2.014            39.35
         N          2.990            31.16

       Values used:

         atom   Coordination number  R0_AB[au]  C6      C8
         B          3.326            3.039     62.90   2506.22
         B          3.317            3.039     62.90   2506.45
         B          3.318            3.039     62.90   2506.42
         B          3.324            3.039     62.90   2506.29
         B          3.325            3.039     62.90   2506.25
         B          3.323            3.039     62.90   2506.29
         B          3.326            3.039     62.90   2506.23
         B          3.324            3.039     62.90   2506.27
         B          3.323            3.039     62.90   2506.30
         B          3.306            3.039     62.91   2506.69
         B          3.319            3.039     62.90   2506.39
         B          3.325            3.039     62.90   2506.26
         B          3.323            3.039     62.90   2506.30
         B          3.323            3.039     62.90   2506.29
         B          3.324            3.039     62.90   2506.29
         B          3.326            3.039     62.90   2506.23
         B          3.294            3.039     62.92   2506.96
         B          3.280            3.039     62.92   2507.27
         B          3.322            3.039     62.90   2506.33
         B          3.325            3.039     62.90   2506.26
         B          3.325            3.039     62.90   2506.25
         B          3.322            3.039     62.90   2506.33
         B          3.317            3.039     62.90   2506.43
         B          3.304            3.039     62.91   2506.72
         C2         3.236            2.750     49.61   1434.70
         B          3.280            3.039     62.92   2507.27
         B          3.319            3.039     62.90   2506.39
         B          3.324            3.039     62.90   2506.29
         B          3.319            3.039     62.90   2506.38
         B          3.316            3.039     62.90   2506.46
         B          3.305            3.039     62.91   2506.70
         B          3.304            3.039     62.91   2506.72
         B          3.294            3.039     62.92   2506.96
         B          3.306            3.039     62.91   2506.69
         B          3.318            3.039     62.90   2506.42
         B          3.316            3.039     62.90   2506.47
         B          3.316            3.039     62.90   2506.46
         B          3.316            3.039     62.90   2506.46
         B          3.317            3.039     62.90   2506.43
         B          3.326            3.039     62.90   2506.23
         B          3.323            3.039     62.90   2506.30
         B          3.317            3.039     62.90   2506.45
         B          3.319            3.039     62.90   2506.40
         B          3.316            3.039     62.90   2506.47
         B          3.319            3.039     62.90   2506.38
         B          3.322            3.039     62.90   2506.33
         B          3.324            3.039     62.90   2506.29
         B          3.324            3.039     62.90   2506.27
         B          3.326            3.039     62.90   2506.22
         N          3.129            2.478     31.22    688.74
         N          3.129            2.478     31.22    688.75
         N          3.125            2.478     31.22    688.78
         N          3.128            2.478     31.22    688.76
         N          3.129            2.478     31.22    688.74
         N          3.128            2.478     31.22    688.75
         N          3.128            2.478     31.22    688.75
         N          3.128            2.478     31.22    688.75
         N          3.129            2.478     31.22    688.75
         N          3.125            2.478     31.22    688.78
         N          3.123            2.478     31.22    688.80
[...]
         N          3.125            2.478     31.22    688.78
         N          3.126            2.478     31.22    688.77
         N          3.126            2.478     31.22    688.78
         N          3.126            2.478     31.22    688.77
         N          3.126            2.478     31.22    688.77
         N          3.129            2.478     31.22    688.74
         N          3.129            2.478     31.22    688.75
         N          3.129            2.478     31.22    688.75
         N          3.129            2.478     31.22    688.74
         N          3.126            2.478     31.22    688.77
         N          3.127            2.478     31.22    688.77
         N          3.128            2.478     31.22    688.75
         N          3.129            2.478     31.22    688.74
         N          3.128            2.478     31.22    688.75
         N          3.129            2.478     31.22    688.74

         Molecular C6 ( Ry / a.u.^6 ) =    437752.69

     gamma-point specific algorithms are used
     Message from routine setup :
     BEWARE: nonlinear core correction is not consistent with hybrid XC

     EXX: grid of k+q points same as grid of k-points

     bravais-lattice index     =            0
     lattice parameter (alat)  =      33.2346  a.u.
     unit-cell volume          =   36234.9286 (a.u.)^3
     number of atoms/cell      =           98
     number of atomic types    =            5
     number of electrons       =       391.00
     number of Kohn-Sham states=          245
     kinetic-energy cutoff     =      25.7300  Ry
     charge density cutoff     =     102.9200  Ry
     cutoff for Fock operator  =     102.9200  Ry
     convergence threshold     =      1.0E-03
     mixing beta               =       0.7000
     number of iterations used =            8  plain     mixing
     Exchange-correlation      = HSE ( 1  4 12  4 0 0)
     EXX-fraction              =        0.32

     celldm(1)=  33.234611  celldm(2)=   0.000000  celldm(3)=   0.000000
     celldm(4)=   0.000000  celldm(5)=   0.000000  celldm(6)=   0.000000

     crystal axes: (cart. coord. in units of alat)
               a(1) = (   1.001023   0.000197   0.000000 )
               a(2) = (  -0.500341   0.867010   0.000000 )
               a(3) = (   0.000000   0.000000   1.137204 )

     reciprocal axes: (cart. coord. in units 2 pi/alat)
               b(1) = (  0.998865  0.576432  0.000000 )
               b(2) = ( -0.000227  1.153258  0.000000 )
               b(3) = (  0.000000  0.000000  0.879350 )

     PseudoPot. # 1 for B  read from file:
     ./pseudo/B.pbe-n-kjpaw_psl.1.0.0.UPF
     MD5 check sum: 8c825a5969375aca5c2c6ad5945b3059
     Pseudo is Projector augmented-wave + core cor, Zval =  3.0
     Generated using "atomic" code by A. Dal Corso v.6.3
     Shape of augmentation charge: PSQ
     Using radial grid of 1059 points,  4 beta functions with:
                l(1) =   0
                l(2) =   0
                l(3) =   1
                l(4) =   1
     Q(r) pseudized with 0 coefficients

     PseudoPot. # 2 for N  read from file:
     ./pseudo/N.pbe-n-kjpaw_psl.1.0.0.UPF
     MD5 check sum: 14c48229446f9f2d411169a3abcbc3fa
     Pseudo is Projector augmented-wave + core cor, Zval =  5.0
     Generated using "atomic" code by A. Dal Corso v.6.3
     Shape of augmentation charge: PSQ
     Using radial grid of 1085 points,  4 beta functions with:
                l(1) =   0
                l(2) =   0
                l(3) =   1
                l(4) =   1
     Q(r) pseudized with 0 coefficients

     PseudoPot. # 3 for C  read from file:
     ./pseudo/C.pbe-n-kjpaw_psl.1.0.0.UPF
     MD5 check sum: 5f16ad9a65e90284d1d834d4ab3b0f7d
     Pseudo is Projector augmented-wave + core cor, Zval =  4.0
     Generated using "atomic" code by A. Dal Corso v.6.3
     Shape of augmentation charge: PSQ
     Using radial grid of 1073 points,  4 beta functions with:
                l(1) =   0
                l(2) =   0
                l(3) =   1
                l(4) =   1
     Q(r) pseudized with 0 coefficients

[...]

     PseudoPot. # 5 for C  read from file:
     ./pseudo/C.pbe-n-kjpaw_psl.1.0.0.UPF
     MD5 check sum: 5f16ad9a65e90284d1d834d4ab3b0f7d
     Pseudo is Projector augmented-wave + core cor, Zval =  4.0
     Generated using "atomic" code by A. Dal Corso v.6.3
     Shape of augmentation charge: PSQ
     Using radial grid of 1073 points,  4 beta functions with:
                l(1) =   0
                l(2) =   0
                l(3) =   1
                l(4) =   1
     Q(r) pseudized with 0 coefficients

     atomic species   valence    mass     pseudopotential
        B              3.00    10.00000     B ( 1.00)
        N              5.00    14.00000     N ( 1.00)
        C1             4.00    12.00000     C ( 1.00)
        C2             4.00    12.00000     C ( 1.00)
        C3             4.00    12.00000     C ( 1.00)

     Starting magnetic structure
     atomic species   magnetization
        B            0.000
        N            0.000
        C1           1.000
[...]
     atom:    2    charge:    0.8498    magn:   -0.0000    constr:    0.0000
     atom:    3    charge:    0.8505    magn:    0.0002    constr:    0.0000
     atom:    4    charge:    0.8521    magn:    0.0001    constr:    0.0000
     atom:    5    charge:    0.8548    magn:   -0.0000    constr:    0.0000
     atom:    6    charge:    0.8548    magn:    0.0001    constr:    0.0000
     atom:    7    charge:    0.8548    magn:    0.0003    constr:    0.0000
     atom:    8    charge:    0.8520    magn:   -0.0003    constr:    0.0000
     atom:    9    charge:    0.8539    magn:   -0.0008    constr:    0.0000
     atom:   10    charge:    0.8410    magn:    0.0015    constr:    0.0000
     atom:   11    charge:    0.8506    magn:   -0.0003    constr:    0.0000
     atom:   12    charge:    0.8533    magn:   -0.0005    constr:    0.0000
     atom:   13    charge:    0.8506    magn:    0.0004    constr:    0.0000
     atom:   14    charge:    0.8548    magn:    0.0001    constr:    0.0000
     atom:   15    charge:    0.8539    magn:    0.0006    constr:    0.0000
     atom:   16    charge:    0.8551    magn:   -0.0005    constr:    0.0000
     atom:   17    charge:    0.8626    magn:   -0.0010    constr:    0.0000
     atom:   18    charge:    0.8508    magn:    0.0026    constr:    0.0000
     atom:   19    charge:    0.8612    magn:   -0.0024    constr:    0.0000
     atom:   20    charge:    0.8533    magn:   -0.0005    constr:    0.0000
     atom:   21    charge:    0.8548    magn:    0.0000    constr:    0.0000
     atom:   22    charge:    0.8499    magn:    0.0005    constr:    0.0000
     atom:   23    charge:    0.8474    magn:   -0.0003    constr:    0.0000
     atom:   24    charge:    0.8412    magn:   -0.0009    constr:    0.0000
     atom:   25    charge:    1.5418    magn:   -0.0098    constr:    0.0000
     atom:   26    charge:    0.8508    magn:    0.0030    constr:    0.0000
     atom:   27    charge:    0.8506    magn:   -0.0002    constr:    0.0000
     atom:   28    charge:    0.8521    magn:    0.0003    constr:    0.0000
     atom:   29    charge:    0.8495    magn:    0.0000    constr:    0.0000
     atom:   30    charge:    0.8495    magn:    0.0008    constr:    0.0000
     atom:   31    charge:    0.8476    magn:    0.0013    constr:    0.0000
     atom:   32    charge:    0.8412    magn:   -0.0010    constr:    0.0000
     atom:   33    charge:    0.8625    magn:   -0.0007    constr:    0.0000
     atom:   34    charge:    0.8410    magn:    0.0016    constr:    0.0000
     atom:   35    charge:    0.8506    magn:    0.0003    constr:    0.0000
     atom:   36    charge:    0.8485    magn:    0.0003    constr:    0.0000
     atom:   37    charge:    0.8502    magn:    0.0008    constr:    0.0000
     atom:   38    charge:    0.8495    magn:    0.0008    constr:    0.0000
     atom:   39    charge:    0.8474    magn:   -0.0003    constr:    0.0000
     atom:   40    charge:    0.8551    magn:   -0.0005    constr:    0.0000
     atom:   41    charge:    0.8539    magn:   -0.0007    constr:    0.0000
     atom:   42    charge:    0.8499    magn:    0.0000    constr:    0.0000
     atom:   43    charge:    0.8475    magn:   -0.0004    constr:    0.0000
     atom:   44    charge:    0.8485    magn:    0.0002    constr:    0.0000
     atom:   45    charge:    0.8494    magn:   -0.0001    constr:    0.0000
     atom:   46    charge:    0.8498    magn:    0.0004    constr:    0.0000
     atom:   47    charge:    0.8539    magn:    0.0005    constr:    0.0000
     atom:   48    charge:    0.8520    magn:   -0.0003    constr:    0.0000
     atom:   49    charge:    0.8556    magn:   -0.0003    constr:    0.0000
     atom:   50    charge:    2.6476    magn:    0.0044    constr:    0.0000
     atom:   51    charge:    2.6390    magn:    0.0002    constr:    0.0000
     atom:   52    charge:    2.6378    magn:    0.0184    constr:    0.0000
     atom:   53    charge:    2.6369    magn:    0.0078    constr:    0.0000
     atom:   54    charge:    2.6415    magn:    0.0009    constr:    0.0000
     atom:   55    charge:    2.6429    magn:    0.0002    constr:    0.0000
     atom:   56    charge:    2.6418    magn:    0.0033    constr:    0.0000
     atom:   57    charge:    2.6393    magn:    0.0008    constr:    0.0000
     atom:   58    charge:    2.6380    magn:    0.0171    constr:    0.0000
     atom:   59    charge:    2.6294    magn:    0.0338    constr:    0.0000
     atom:   60    charge:    2.6338    magn:    0.0162    constr:    0.0000
[...]
     atom:   84    charge:    2.6379    magn:    0.0183    constr:    0.0000
     atom:   85    charge:    2.6362    magn:    0.0043    constr:    0.0000
     atom:   86    charge:    2.6362    magn:    0.0028    constr:    0.0000
     atom:   87    charge:    2.6395    magn:    0.0003    constr:    0.0000
     atom:   88    charge:    2.6400    magn:    0.0003    constr:    0.0000
     atom:   89    charge:    2.6376    magn:    0.0094    constr:    0.0000
     atom:   90    charge:    2.6379    magn:    0.0171    constr:    0.0000
     atom:   91    charge:    2.6393    magn:    0.0002    constr:    0.0000
     atom:   92    charge:    2.6465    magn:    0.0088    constr:    0.0000
     atom:   93    charge:    2.6358    magn:    0.0045    constr:    0.0000
     atom:   94    charge:    2.6477    magn:    0.0013    constr:    0.0000
     atom:   95    charge:    2.6416    magn:    0.0009    constr:    0.0000
     atom:   96    charge:    2.6528    magn:    0.0016    constr:    0.0000
     atom:   97    charge:    2.6404    magn:    0.0012    constr:    0.0000
     atom:   98    charge:    2.6465    magn:    0.0041    constr:    0.0000

     End of self-consistent calculation

 ------ SPIN UP ------------

          k = 0.0000 0.0000 0.0000 ( 39993 PWs)   bands (ev):

[...]

 ------ SPIN DOWN ----------

[...]

     highest occupied, lowest unoccupied level (ev):    -4.5510   -4.8799

!    total energy              =   -1937.63592214 Ry
     Harris-Foulkes estimate   =   -1937.63675067 Ry
     estimated scf accuracy    <       0.00094847 Ry

[...]

     convergence has been achieved in  16 iterations

     Using ACE for calculation of exact exchange

[...]

     EXX: now go back to refine exchange calculation

[...]

     total energy              =   -1713.12670266 Ry
     Harris-Foulkes estimate   =   -1713.12746731 Ry
     est. exchange err (dexx)  =       0.04775215 Ry
     - averaged Fock potential =     193.27850454 Ry
     + Fock energy (ACE)       =     -96.75490091 Ry

[...]

     iteration #  1     ecut=    25.73 Ry     beta= 0.70
     CG style diagonalization
     c_bands:  1 eigenvalues not converged
     c_bands:  1 eigenvalues not converged
     ethr =  2.25E-06,  avg # of iterations =  4.3

[...]

     total energy              =   -1713.13543643 Ry
     Harris-Foulkes estimate   =   -1713.13641345 Ry
     estimated scf accuracy    <       0.00164823 Ry

[...]

     total energy              =   -1713.13836469 Ry
     Harris-Foulkes estimate   =   -1713.13855510 Ry
     est. exchange err (dexx)  =       0.00253478 Ry
     - averaged Fock potential =     193.53917036 Ry
     + Fock energy (ACE)       =     -96.78680423 Ry

     EXX: now go back to refine exchange calculation

     Self-consistent Calculation

     iteration #  1     ecut=    25.73 Ry     beta= 0.70
     CG style diagonalization
     ethr =  4.22E-07,  avg # of iterations = 13.6

     negative rho (up, down):  3.069E+00 4.272E-02

     Magnetic moment per site:
     atom:    1    charge:    0.8252    magn:   -0.0003    constr:    0.0000
     atom:    2    charge:    0.8193    magn:    0.0000    constr:    0.0000
     atom:    3    charge:    0.8199    magn:   -0.0002    constr:    0.0000
     atom:    4    charge:    0.8218    magn:   -0.0001    constr:    0.0000
     atom:    5    charge:    0.8245    magn:   -0.0001    constr:    0.0000
     atom:    6    charge:    0.8245    magn:   -0.0000    constr:    0.0000
     atom:    7    charge:    0.8246    magn:   -0.0000    constr:    0.0000
     atom:    8    charge:    0.8213    magn:   -0.0003    constr:    0.0000
     atom:    9    charge:    0.8232    magn:   -0.0013    constr:    0.0000
     atom:   10    charge:    0.8102    magn:    0.0007    constr:    0.0000
     atom:   11    charge:    0.8198    magn:   -0.0008    constr:    0.0000
     atom:   12    charge:    0.8227    magn:   -0.0007    constr:    0.0000
     atom:   13    charge:    0.8202    magn:   -0.0001    constr:    0.0000
     atom:   14    charge:    0.8245    magn:   -0.0000    constr:    0.0000
     atom:   15    charge:    0.8236    magn:   -0.0001    constr:    0.0000
     atom:   16    charge:    0.8243    magn:   -0.0014    constr:    0.0000
     atom:   17    charge:    0.8347    magn:   -0.0036    constr:    0.0000
     atom:   18    charge:    0.8231    magn:   -0.0017    constr:    0.0000
     atom:   19    charge:    0.8308    magn:   -0.0034    constr:    0.0000
     atom:   20    charge:    0.8227    magn:   -0.0007    constr:    0.0000
     atom:   21    charge:    0.8245    magn:   -0.0001    constr:    0.0000
     atom:   22    charge:    0.8194    magn:   -0.0000    constr:    0.0000
     atom:   23    charge:    0.8166    magn:   -0.0008    constr:    0.0000
     atom:   24    charge:    0.8118    magn:   -0.0026    constr:    0.0000
     atom:   25    charge:    1.5076    magn:   -0.0137    constr:    0.0000
     atom:   26    charge:    0.8231    magn:   -0.0017    constr:    0.0000
     atom:   27    charge:    0.8198    magn:   -0.0008    constr:    0.0000
     atom:   28    charge:    0.8218    magn:   -0.0001    constr:    0.0000
     atom:   29    charge:    0.8190    magn:   -0.0000    constr:    0.0000
     atom:   30    charge:    0.8192    magn:    0.0003    constr:    0.0000
     atom:   31    charge:    0.8174    magn:    0.0006    constr:    0.0000
     atom:   32    charge:    0.8118    magn:   -0.0026    constr:    0.0000
     atom:   33    charge:    0.8347    magn:   -0.0036    constr:    0.0000
     atom:   34    charge:    0.8102    magn:    0.0007    constr:    0.0000
     atom:   35    charge:    0.8199    magn:   -0.0002    constr:    0.0000
     atom:   36    charge:    0.8182    magn:    0.0001    constr:    0.0000
     atom:   37    charge:    0.8200    magn:    0.0003    constr:    0.0000
     atom:   38    charge:    0.8192    magn:    0.0003    constr:    0.0000
     atom:   39    charge:    0.8166    magn:   -0.0008    constr:    0.0000
     atom:   40    charge:    0.8243    magn:   -0.0014    constr:    0.0000
     atom:   41    charge:    0.8232    magn:   -0.0013    constr:    0.0000
     atom:   42    charge:    0.8193    magn:    0.0000    constr:    0.0000
     atom:   43    charge:    0.8168    magn:   -0.0002    constr:    0.0000
     atom:   44    charge:    0.8182    magn:    0.0001    constr:    0.0000
     atom:   45    charge:    0.8190    magn:   -0.0001    constr:    0.0000
     atom:   46    charge:    0.8194    magn:   -0.0000    constr:    0.0000
     atom:   47    charge:    0.8236    magn:   -0.0001    constr:    0.0000
     atom:   48    charge:    0.8213    magn:   -0.0004    constr:    0.0000
     atom:   49    charge:    0.8252    magn:   -0.0003    constr:    0.0000
     atom:   50    charge:    2.6207    magn:    0.0014    constr:    0.0000
     atom:   51    charge:    2.6127    magn:    0.0003    constr:    0.0000
     atom:   52    charge:    2.6130    magn:    0.0091    constr:    0.0000
     atom:   53    charge:    2.6121    magn:    0.0022    constr:    0.0000
     atom:   54    charge:    2.6151    magn:    0.0007    constr:    0.0000
     atom:   55    charge:    2.6169    magn:    0.0003    constr:    0.0000
     atom:   56    charge:    2.6136    magn:    0.0006    constr:    0.0000
     atom:   57    charge:    2.6131    magn:    0.0005    constr:    0.0000
     atom:   58    charge:    2.6115    magn:    0.0086    constr:    0.0000
     atom:   59    charge:    2.6032    magn:    0.0310    constr:    0.0000
     atom:   60    charge:    2.6071    magn:    0.0134    constr:    0.0000
[...]
     atom:   84    charge:    2.6130    magn:    0.0091    constr:    0.0000
     atom:   85    charge:    2.6104    magn:    0.0013    constr:    0.0000
     atom:   86    charge:    2.6108    magn:    0.0004    constr:    0.0000
     atom:   87    charge:    2.6132    magn:    0.0007    constr:    0.0000
     atom:   88    charge:    2.6136    magn:    0.0003    constr:    0.0000
     atom:   89    charge:    2.6118    magn:    0.0056    constr:    0.0000
     atom:   90    charge:    2.6116    magn:    0.0086    constr:    0.0000
     atom:   91    charge:    2.6127    magn:    0.0003    constr:    0.0000
     atom:   92    charge:    2.6206    magn:    0.0011    constr:    0.0000
     atom:   93    charge:    2.6104    magn:    0.0013    constr:    0.0000
     atom:   94    charge:    2.6217    magn:    0.0007    constr:    0.0000
     atom:   95    charge:    2.6159    magn:    0.0003    constr:    0.0000
     atom:   96    charge:    2.6259    magn:    0.0010    constr:    0.0000
     atom:   97    charge:    2.6131    magn:    0.0006    constr:    0.0000
     atom:   98    charge:    2.6208    magn:    0.0014    constr:    0.0000

     End of self-consistent calculation

 ------ SPIN UP ------------

[...]

 ------ SPIN DOWN ----------

          k = 0.0000 0.0000 0.0000 ( 39993 PWs)   bands (ev):

   -26.9075 -25.5921 -25.3604 -25.3384 -25.2311 -25.2176 -25.1350 -24.9403
   -24.5740 -24.5390 -24.4971 -24.3867 -24.3572 -24.1745 -24.1274 -24.1192
   -24.1123 -23.9915 -23.9819 -23.5104 -23.2604 -23.2594 -23.2501 -23.0991
   -23.0881 -23.0552 -23.0458 -23.0388 -23.0258 -22.8683 -22.8450 -22.7841
   -22.6031 -22.5945 -22.5843 -22.5635 -22.5401 -22.2193 -22.2140 -22.1937
   -22.1797 -22.0377 -22.0348 -21.9347 -21.9268 -21.8987 -21.8949 -21.2591
   -19.0099 -16.9691 -15.9959 -15.7288 -15.6599 -15.6447 -15.6184 -15.4101
   -15.3963 -15.3830 -15.3505 -15.3145 -15.2930 -15.0942 -15.0461 -14.9294
   -14.8703 -14.8382 -14.8019 -14.4066 -14.2868 -14.2813 -14.1891 -14.1247
   -14.0897 -14.0678 -14.0532 -14.0368 -14.0361 -13.9854 -13.9057 -13.7029
   -13.3862 -13.3803 -13.3066 -13.2613 -13.2482 -12.8081 -12.6523 -12.6491
   -12.5567 -12.5538 -12.4449 -12.1372 -12.0608 -11.9779 -11.9155 -11.8647
   -11.8055 -11.7178 -11.5853 -11.5332 -11.4581 -11.4492 -11.4191 -11.4069
   -11.3843 -11.3765 -11.3587 -11.3120 -11.2685 -11.2581 -11.2414 -11.2366
   -11.2240 -11.2106 -11.2011 -11.1945 -11.1333 -11.0907 -11.0829 -11.0339
   -11.0134 -10.9357 -10.6693 -10.6309 -10.5391 -10.5121 -10.5063 -10.4514
   -10.3384 -10.0725 -10.0385 -10.0236 -10.0100  -9.9714  -9.8777  -9.8771
    -9.8604  -9.8431  -9.7384  -9.7158  -9.6602  -9.6554  -9.6257  -9.6215
    -9.6133  -9.5537  -9.5517  -9.4845  -9.4733  -9.4442  -9.3286  -9.3234
    -9.2698  -9.2245  -9.2195  -9.1405  -8.9722  -8.9400  -8.4370  -8.3968
    -8.3614  -8.2883  -8.2560  -8.1526  -8.1123  -8.1008  -8.0668  -8.0318
    -7.9405  -7.9234  -7.9111  -7.9086  -7.8946  -7.8857  -7.6739  -7.6392
    -7.5202  -7.5127  -7.4216  -7.2457  -7.2339  -7.2217  -7.1070  -7.0794
    -6.5588  -6.5549  -6.5178  -6.4969  -6.3407  -6.3394  -6.1995  -6.1878
    -6.1419  -6.1233  -5.0129  -3.3101  -0.6490  -0.2426  -0.0288   0.0540
     0.1506   0.1668   0.2734   0.2767   0.3102   0.3187   0.5642   0.6037
     0.6051   0.6691   0.6716   0.6955   0.9118   0.9263   0.9536   0.9553
     0.9844   0.9846   0.9990   1.0713   1.1861   1.1963   1.2377   1.3648
     1.4142   1.4545   1.5244   1.5402   1.5432   1.5476   1.5510   1.5647
     1.5709   1.5774   1.5863   1.6251   1.6524   1.6911   1.7066   1.7331
     1.7818   1.8320   1.8664   1.8816   1.9263

     highest occupied, lowest unoccupied level (ev):    -6.1233   -5.0129

!    total energy              =   -1713.13895088 Ry
     Harris-Foulkes estimate   =   -1713.13945220 Ry
     estimated scf accuracy    <       0.00065462 Ry

     total magnetization       =     1.00 Bohr mag/cell
     absolute magnetization    =     3.30 Bohr mag/cell

     convergence has been achieved in   1 iterations

     Using ACE for calculation of exact exchange

!!   total energy              =   -1713.13935124 Ry
     Harris-Foulkes estimate   =   -1713.13985257 Ry
     est. exchange err (dexx)  =       0.00040036 Ry
     - averaged Fock potential =     193.58082938 Ry
     + Fock energy (ACE)       =     -96.79442551 Ry

     EXX self-consistency reached

     Writing output data file C2Cn.save/

     General routines

     Parallel routines

     EXX routines

     EXX+US  routines

     EXX+PAW routines

   This run was terminated on:   5:16:49  30Jul2021

   JOB DONE.