     Program PWSCF v.6.4.1 starts on 22Sep2021 at  7:32: 3

     R & G space division:  proc/nbgrp/npool/nimage =      64
     Waiting for input...
     Reading input from standard input

     Current dimensions of program PWSCF are:
     Max number of different atomic species (ntypx) = 10
     Max number of k-points (npk) =  40000
     Max angular momentum in pseudopotentials (lmaxx) =  3

     IMPORTANT: XC functional enforced from input :
     Exchange-correlation      = HSE ( 1  4 12  4 0 0)
     EXX-fraction              =        0.25
     Any further DFT definition will be discarded
     Please, verify this is what you really want

               file N.pbe-n-kjpaw_psl.1.0.0.UPF: wavefunction(s)  2S renormalized
               file C.pbe-n-kjpaw_psl.1.0.0.UPF: wavefunction(s)  2S 2P renormalized
               file C.pbe-n-kjpaw_psl.1.0.0.UPF: wavefunction(s)  2S 2P renormalized
               file C.pbe-n-kjpaw_psl.1.0.0.UPF: wavefunction(s)  2S 2P renormalized
     EXX fraction changed:   0.32
     EXX Screening parameter changed:    0.0455000

     Parameters for DFT-D3 Dispersion Correction:
       Reference C6 values for interpolation:

         atom   Coordination number   C6
         B          0.000           214.36
         B          0.971           150.74
         B          1.944           106.23
         B          2.913            62.89
         B          4.586            56.06
         C1         0.000            98.23
         C1         0.987            86.49
         C1         1.998            58.72
         C1         2.999            51.56
         C1         3.984            36.41
         C2         0.000            98.23
         C2         0.987            86.49
         C2         1.998            58.72
         C2         2.999            51.56
         C2         3.984            36.41
         C3         0.000            98.23
         C3         0.987            86.49
         C3         1.998            58.72
         C3         2.999            51.56
         C3         3.984            36.41
         N          0.000            50.54
         N          0.994            44.25
         N          2.014            39.35
         N          2.990            31.16

       Values used:

         atom   Coordination number  R0_AB[au]  C6      C8
         B          3.325            3.039     62.90   2506.24
         B          3.317            3.039     62.90   2506.44
         B          3.317            3.039     62.90   2506.43
         B          3.325            3.039     62.90   2506.25
         B          3.327            3.039     62.90   2506.21
         B          3.324            3.039     62.90   2506.27
         B          3.326            3.039     62.90   2506.22
         B          3.325            3.039     62.90   2506.26
         B          3.323            3.039     62.90   2506.30
         B          3.303            3.039     62.91   2506.76
         B          3.322            3.039     62.90   2506.33
         B          3.329            3.039     62.90   2506.15
         B          3.325            3.039     62.90   2506.24
         B          3.324            3.039     62.90   2506.27
         B          3.325            3.039     62.90   2506.26
         B          3.327            3.039     62.90   2506.21
         B          3.297            3.039     62.91   2506.88
         B          3.297            3.039     62.91   2506.90
         B          3.336            3.039     62.89   2505.99
         B          3.329            3.039     62.90   2506.15
         B          3.327            3.039     62.90   2506.21
         B          3.323            3.039     62.90   2506.31
         B          3.319            3.039     62.90   2506.40
         B          3.314            3.039     62.90   2506.51
         C2         3.249            2.750     49.43   1429.56
         B          3.297            3.039     62.91   2506.90
         B          3.322            3.039     62.90   2506.33
         B          3.325            3.039     62.90   2506.25
         B          3.321            3.039     62.90   2506.36
         B          3.319            3.039     62.90   2506.39
         B          3.315            3.039     62.90   2506.50
         B          3.314            3.039     62.90   2506.51
         B          3.297            3.039     62.91   2506.88
         B          3.303            3.039     62.91   2506.76
         B          3.317            3.039     62.90   2506.43
         B          3.316            3.039     62.90   2506.45
         B          3.318            3.039     62.90   2506.42
         B          3.319            3.039     62.90   2506.39
         B          3.319            3.039     62.90   2506.40
         B          3.327            3.039     62.90   2506.21
         B          3.323            3.039     62.90   2506.30
         B          3.317            3.039     62.90   2506.44
         B          3.319            3.039     62.90   2506.40
         B          3.316            3.039     62.90   2506.45
         B          3.321            3.039     62.90   2506.36
         B          3.323            3.039     62.90   2506.31
         B          3.325            3.039     62.90   2506.26
         B          3.325            3.039     62.90   2506.26
         B          3.325            3.039     62.90   2506.24
         N          3.129            2.478     31.22    688.74
         N          3.128            2.478     31.22    688.75
         N          3.125            2.478     31.22    688.79
         N          3.128            2.478     31.22    688.75
         N          3.130            2.478     31.22    688.73
         N          3.129            2.478     31.22    688.75
         N          3.129            2.478     31.22    688.75
         N          3.129            2.478     31.22    688.75
         N          3.129            2.478     31.22    688.74
         N          3.124            2.478     31.22    688.79
         N          3.123            2.478     31.22    688.80
[...]
         N          3.125            2.478     31.22    688.79
         N          3.126            2.478     31.22    688.77
         N          3.126            2.478     31.22    688.77
         N          3.127            2.478     31.22    688.76
         N          3.127            2.478     31.22    688.76
         N          3.129            2.478     31.22    688.74
         N          3.129            2.478     31.22    688.74
         N          3.128            2.478     31.22    688.75
         N          3.129            2.478     31.22    688.74
         N          3.126            2.478     31.22    688.77
         N          3.127            2.478     31.22    688.77
         N          3.129            2.478     31.22    688.75
         N          3.130            2.478     31.22    688.74
         N          3.129            2.478     31.22    688.75
         N          3.129            2.478     31.22    688.74

         Molecular C6 ( Ry / a.u.^6 ) =    437698.51

     gamma-point specific algorithms are used
     Message from routine setup :
     BEWARE: nonlinear core correction is not consistent with hybrid XC

     EXX: grid of k+q points same as grid of k-points

     bravais-lattice index     =            0
     lattice parameter (alat)  =      33.2346  a.u.
     unit-cell volume          =   36184.4017 (a.u.)^3
     number of atoms/cell      =           98
     number of atomic types    =            5
     number of electrons       =       391.00
     number of Kohn-Sham states=          245
     kinetic-energy cutoff     =       5.0000  Ry
     charge density cutoff     =      20.0000  Ry
     cutoff for Fock operator  =      20.0000  Ry
     convergence threshold     =      1.0E-06
     mixing beta               =       0.7000
     number of iterations used =            8  plain     mixing
     Exchange-correlation      = HSE ( 1  4 12  4 0 0)
     EXX-fraction              =        0.32

     celldm(1)=  33.234611  celldm(2)=   0.000000  celldm(3)=   0.000000
     celldm(4)=   0.000000  celldm(5)=   0.000000  celldm(6)=   0.000000

     crystal axes: (cart. coord. in units of alat)
               a(1) = (   1.000640  -0.000349   0.000000 )
               a(2) = (  -0.500622   0.866405   0.000000 )
               a(3) = (   0.000000   0.000000   1.137204 )

     reciprocal axes: (cart. coord. in units 2 pi/alat)
               b(1) = (  0.999562  0.577562  0.000000 )
               b(2) = (  0.000402  1.154427  0.000000 )
               b(3) = (  0.000000  0.000000  0.879350 )

     PseudoPot. # 1 for B  read from file:
     ./pseudo/B.pbe-n-kjpaw_psl.1.0.0.UPF
     MD5 check sum: 8c825a5969375aca5c2c6ad5945b3059
     Pseudo is Projector augmented-wave + core cor, Zval =  3.0
     Generated using "atomic" code by A. Dal Corso v.6.3
     Shape of augmentation charge: PSQ
     Using radial grid of 1059 points,  4 beta functions with:
                l(1) =   0
                l(2) =   0
                l(3) =   1
                l(4) =   1
     Q(r) pseudized with 0 coefficients

     PseudoPot. # 2 for N  read from file:
     ./pseudo/N.pbe-n-kjpaw_psl.1.0.0.UPF
     MD5 check sum: 14c48229446f9f2d411169a3abcbc3fa
     Pseudo is Projector augmented-wave + core cor, Zval =  5.0
     Generated using "atomic" code by A. Dal Corso v.6.3
     Shape of augmentation charge: PSQ
     Using radial grid of 1085 points,  4 beta functions with:
                l(1) =   0
                l(2) =   0
                l(3) =   1
                l(4) =   1
     Q(r) pseudized with 0 coefficients

     PseudoPot. # 3 for C  read from file:
     ./pseudo/C.pbe-n-kjpaw_psl.1.0.0.UPF
     MD5 check sum: 5f16ad9a65e90284d1d834d4ab3b0f7d
     Pseudo is Projector augmented-wave + core cor, Zval =  4.0
     Generated using "atomic" code by A. Dal Corso v.6.3
     Shape of augmentation charge: PSQ
     Using radial grid of 1073 points,  4 beta functions with:
                l(1) =   0
                l(2) =   0
                l(3) =   1
                l(4) =   1
     Q(r) pseudized with 0 coefficients

[...]

     PseudoPot. # 5 for C  read from file:
     ./pseudo/C.pbe-n-kjpaw_psl.1.0.0.UPF
     MD5 check sum: 5f16ad9a65e90284d1d834d4ab3b0f7d
     Pseudo is Projector augmented-wave + core cor, Zval =  4.0
     Generated using "atomic" code by A. Dal Corso v.6.3
     Shape of augmentation charge: PSQ
     Using radial grid of 1073 points,  4 beta functions with:
                l(1) =   0
                l(2) =   0
                l(3) =   1
                l(4) =   1
     Q(r) pseudized with 0 coefficients

     atomic species   valence    mass     pseudopotential
        B              3.00    10.00000     B ( 1.00)
        N              5.00    14.00000     N ( 1.00)
        C1             4.00    12.00000     C ( 1.00)
        C2             4.00    12.00000     C ( 1.00)
        C3             4.00    12.00000     C ( 1.00)

     Starting magnetic structure
     atomic species   magnetization
        B            0.000
        N            0.000
        C1           1.000
[...]
     atom:    2    charge:    0.8024    magn:    0.0002    constr:    0.0000
     atom:    3    charge:    0.8004    magn:    0.0007    constr:    0.0000
     atom:    4    charge:    0.7921    magn:   -0.0000    constr:    0.0000
     atom:    5    charge:    0.8050    magn:    0.0000    constr:    0.0000
     atom:    6    charge:    0.8082    magn:    0.0001    constr:    0.0000
     atom:    7    charge:    0.8320    magn:   -0.0000    constr:    0.0000
     atom:    8    charge:    0.8297    magn:    0.0002    constr:    0.0000
     atom:    9    charge:    0.8061    magn:   -0.0002    constr:    0.0000
     atom:   10    charge:    0.7791    magn:    0.0020    constr:    0.0000
     atom:   11    charge:    0.7603    magn:    0.0004    constr:    0.0000
     atom:   12    charge:    0.7490    magn:    0.0001    constr:    0.0000
     atom:   13    charge:    0.7871    magn:   -0.0000    constr:    0.0000
     atom:   14    charge:    0.8082    magn:    0.0001    constr:    0.0000
     atom:   15    charge:    0.8468    magn:   -0.0001    constr:    0.0000
     atom:   16    charge:    0.8299    magn:    0.0001    constr:    0.0000
     atom:   17    charge:    0.7415    magn:    0.0000    constr:    0.0000
     atom:   18    charge:    0.7692    magn:    0.0047    constr:    0.0000
     atom:   19    charge:    0.7720    magn:   -0.0003    constr:    0.0000
     atom:   20    charge:    0.7490    magn:    0.0001    constr:    0.0000
     atom:   21    charge:    0.8050    magn:    0.0000    constr:    0.0000
     atom:   22    charge:    0.8270    magn:    0.0000    constr:    0.0000
     atom:   23    charge:    0.8433    magn:    0.0003    constr:    0.0000
     atom:   24    charge:    0.8270    magn:   -0.0001    constr:    0.0000
     atom:   25    charge:    1.1123    magn:   -0.0032    constr:    0.0000
     atom:   26    charge:    0.7692    magn:    0.0047    constr:    0.0000
     atom:   27    charge:    0.7603    magn:    0.0004    constr:    0.0000
     atom:   28    charge:    0.7921    magn:   -0.0000    constr:    0.0000
     atom:   29    charge:    0.8271    magn:    0.0000    constr:    0.0000
     atom:   30    charge:    0.8619    magn:    0.0001    constr:    0.0000
     atom:   31    charge:    0.8626    magn:   -0.0001    constr:    0.0000
     atom:   32    charge:    0.8270    magn:   -0.0001    constr:    0.0000
     atom:   33    charge:    0.7415    magn:    0.0000    constr:    0.0000
     atom:   34    charge:    0.7791    magn:    0.0020    constr:    0.0000
     atom:   35    charge:    0.8004    magn:    0.0007    constr:    0.0000
     atom:   36    charge:    0.8407    magn:    0.0003    constr:    0.0000
     atom:   37    charge:    0.8457    magn:   -0.0000    constr:    0.0000
     atom:   38    charge:    0.8619    magn:    0.0001    constr:    0.0000
     atom:   39    charge:    0.8433    magn:    0.0003    constr:    0.0000
     atom:   40    charge:    0.8299    magn:    0.0001    constr:    0.0000
     atom:   41    charge:    0.8061    magn:   -0.0002    constr:    0.0000
     atom:   42    charge:    0.8024    magn:    0.0002    constr:    0.0000
     atom:   43    charge:    0.8259    magn:   -0.0000    constr:    0.0000
     atom:   44    charge:    0.8407    magn:    0.0003    constr:    0.0000
     atom:   45    charge:    0.8271    magn:    0.0000    constr:    0.0000
     atom:   46    charge:    0.8270    magn:    0.0000    constr:    0.0000
     atom:   47    charge:    0.8468    magn:   -0.0001    constr:    0.0000
     atom:   48    charge:    0.8297    magn:    0.0002    constr:    0.0000
     atom:   49    charge:    0.8311    magn:    0.0000    constr:    0.0000
     atom:   50    charge:    1.5239    magn:    0.0003    constr:    0.0000
     atom:   51    charge:    1.5135    magn:   -0.0000    constr:    0.0000
     atom:   52    charge:    1.5080    magn:    0.0011    constr:    0.0000
     atom:   53    charge:    1.4846    magn:    0.0000    constr:    0.0000
     atom:   54    charge:    1.4810    magn:    0.0000    constr:    0.0000
     atom:   55    charge:    1.5124    magn:    0.0000    constr:    0.0000
     atom:   56    charge:    1.5134    magn:   -0.0000    constr:    0.0000
     atom:   57    charge:    1.4714    magn:    0.0001    constr:    0.0000
     atom:   58    charge:    1.4764    magn:    0.0014    constr:    0.0000
     atom:   59    charge:    1.5093    magn:    0.0016    constr:    0.0000
     atom:   60    charge:    1.5060    magn:    0.0029    constr:    0.0000
[...]
     atom:   84    charge:    1.5080    magn:    0.0011    constr:    0.0000
     atom:   85    charge:    1.4719    magn:    0.0002    constr:    0.0000
     atom:   86    charge:    1.4302    magn:    0.0000    constr:    0.0000
     atom:   87    charge:    1.3711    magn:    0.0000    constr:    0.0000
     atom:   88    charge:    1.3774    magn:    0.0001    constr:    0.0000
     atom:   89    charge:    1.4442    magn:    0.0001    constr:    0.0000
     atom:   90    charge:    1.4764    magn:    0.0014    constr:    0.0000
     atom:   91    charge:    1.5135    magn:   -0.0000    constr:    0.0000
     atom:   92    charge:    1.5263    magn:   -0.0000    constr:    0.0000
     atom:   93    charge:    1.4719    magn:    0.0002    constr:    0.0000
     atom:   94    charge:    1.4543    magn:    0.0001    constr:    0.0000
     atom:   95    charge:    1.4444    magn:    0.0000    constr:    0.0000
     atom:   96    charge:    1.4589    magn:    0.0000    constr:    0.0000
     atom:   97    charge:    1.4714    magn:    0.0001    constr:    0.0000
     atom:   98    charge:    1.5239    magn:    0.0003    constr:    0.0000

     End of self-consistent calculation

 ------ SPIN UP ------------

          k = 0.0000 0.0000 0.0000 (  3407 PWs)   bands (ev):

[...]

 ------ SPIN DOWN ----------

[...]

     highest occupied, lowest unoccupied level (ev):    -3.5798   -3.1145

!    total energy              =   -1760.87969887 Ry
     Harris-Foulkes estimate   =   -1760.87970106 Ry
     estimated scf accuracy    <       0.00000030 Ry

[...]

     convergence has been achieved in  12 iterations

     Using ACE for calculation of exact exchange

[...]

     EXX: now go back to refine exchange calculation

[...]

     total energy              =   -1540.65607093 Ry
     Harris-Foulkes estimate   =   -1540.65605285 Ry
     est. exchange err (dexx)  =       0.02609997 Ry
     - averaged Fock potential =     169.46937815 Ry
     + Fock energy (ACE)       =     -84.87406343 Ry

[...]

     iteration #  1     ecut=     5.00 Ry     beta= 0.70
     CG style diagonalization
     c_bands:  3 eigenvalues not converged
     c_bands:  2 eigenvalues not converged
     ethr =  5.10E-10,  avg # of iterations =  5.0

[...]

     total energy              =   -1540.66170220 Ry
     Harris-Foulkes estimate   =   -1540.66170118 Ry
     est. exchange err (dexx)  =       0.00000418 Ry
     - averaged Fock potential =     169.87422243 Ry
     + Fock energy (ACE)       =     -84.93858854 Ry

     EXX: now go back to refine exchange calculation

     Self-consistent Calculation

[...]

     total energy              =   -1540.66170493 Ry
     Harris-Foulkes estimate   =   -1540.66170692 Ry
     estimated scf accuracy    <       0.00000372 Ry

[...]

     iteration #  3     ecut=     5.00 Ry     beta= 0.70
     CG style diagonalization
     ethr =  5.79E-10,  avg # of iterations =  3.6

     negative rho (up, down):  1.070E+01 6.430E-04

     Magnetic moment per site:
     atom:    1    charge:    0.8208    magn:   -0.0000    constr:    0.0000
     atom:    2    charge:    0.7920    magn:    0.0002    constr:    0.0000
     atom:    3    charge:    0.7899    magn:    0.0006    constr:    0.0000
     atom:    4    charge:    0.7816    magn:   -0.0000    constr:    0.0000
     atom:    5    charge:    0.7945    magn:    0.0000    constr:    0.0000
     atom:    6    charge:    0.7979    magn:    0.0001    constr:    0.0000
     atom:    7    charge:    0.8216    magn:   -0.0000    constr:    0.0000
     atom:    8    charge:    0.8196    magn:    0.0001    constr:    0.0000
     atom:    9    charge:    0.7956    magn:   -0.0002    constr:    0.0000
     atom:   10    charge:    0.7680    magn:    0.0024    constr:    0.0000
     atom:   11    charge:    0.7496    magn:    0.0005    constr:    0.0000
     atom:   12    charge:    0.7384    magn:    0.0001    constr:    0.0000
     atom:   13    charge:    0.7766    magn:   -0.0000    constr:    0.0000
     atom:   14    charge:    0.7979    magn:    0.0001    constr:    0.0000
     atom:   15    charge:    0.8368    magn:   -0.0001    constr:    0.0000
     atom:   16    charge:    0.8196    magn:    0.0001    constr:    0.0000
     atom:   17    charge:    0.7322    magn:    0.0002    constr:    0.0000
     atom:   18    charge:    0.7594    magn:    0.0038    constr:    0.0000
     atom:   19    charge:    0.7614    magn:   -0.0004    constr:    0.0000
     atom:   20    charge:    0.7384    magn:    0.0001    constr:    0.0000
     atom:   21    charge:    0.7945    magn:    0.0000    constr:    0.0000
     atom:   22    charge:    0.8170    magn:    0.0000    constr:    0.0000
     atom:   23    charge:    0.8335    magn:    0.0002    constr:    0.0000
     atom:   24    charge:    0.8170    magn:   -0.0004    constr:    0.0000
     atom:   25    charge:    1.0983    magn:   -0.0070    constr:    0.0000
     atom:   26    charge:    0.7594    magn:    0.0038    constr:    0.0000
     atom:   27    charge:    0.7496    magn:    0.0005    constr:    0.0000
     atom:   28    charge:    0.7816    magn:   -0.0000    constr:    0.0000
     atom:   29    charge:    0.8170    magn:    0.0000    constr:    0.0000
     atom:   30    charge:    0.8523    magn:    0.0000    constr:    0.0000
     atom:   31    charge:    0.8529    magn:   -0.0002    constr:    0.0000
     atom:   32    charge:    0.8170    magn:   -0.0004    constr:    0.0000
     atom:   33    charge:    0.7322    magn:    0.0002    constr:    0.0000
     atom:   34    charge:    0.7680    magn:    0.0024    constr:    0.0000
     atom:   35    charge:    0.7899    magn:    0.0006    constr:    0.0000
     atom:   36    charge:    0.8306    magn:    0.0003    constr:    0.0000
     atom:   37    charge:    0.8358    magn:   -0.0000    constr:    0.0000
     atom:   38    charge:    0.8523    magn:    0.0000    constr:    0.0000
     atom:   39    charge:    0.8335    magn:    0.0002    constr:    0.0000
     atom:   40    charge:    0.8196    magn:    0.0001    constr:    0.0000
     atom:   41    charge:    0.7956    magn:   -0.0002    constr:    0.0000
     atom:   42    charge:    0.7920    magn:    0.0002    constr:    0.0000
     atom:   43    charge:    0.8157    magn:   -0.0000    constr:    0.0000
     atom:   44    charge:    0.8306    magn:    0.0003    constr:    0.0000
     atom:   45    charge:    0.8170    magn:    0.0000    constr:    0.0000
     atom:   46    charge:    0.8170    magn:    0.0000    constr:    0.0000
     atom:   47    charge:    0.8368    magn:   -0.0001    constr:    0.0000
     atom:   48    charge:    0.8196    magn:    0.0001    constr:    0.0000
     atom:   49    charge:    0.8208    magn:   -0.0000    constr:    0.0000
     atom:   50    charge:    1.5140    magn:    0.0002    constr:    0.0000
     atom:   51    charge:    1.5036    magn:   -0.0000    constr:    0.0000
     atom:   52    charge:    1.4985    magn:    0.0006    constr:    0.0000
     atom:   53    charge:    1.4747    magn:   -0.0000    constr:    0.0000
     atom:   54    charge:    1.4712    magn:    0.0000    constr:    0.0000
     atom:   55    charge:    1.5029    magn:    0.0000    constr:    0.0000
     atom:   56    charge:    1.5036    magn:   -0.0000    constr:    0.0000
     atom:   57    charge:    1.4617    magn:    0.0001    constr:    0.0000
     atom:   58    charge:    1.4668    magn:    0.0011    constr:    0.0000
     atom:   59    charge:    1.4996    magn:    0.0014    constr:    0.0000
     atom:   60    charge:    1.4964    magn:    0.0026    constr:    0.0000
[...]
     atom:   84    charge:    1.4985    magn:    0.0006    constr:    0.0000
     atom:   85    charge:    1.4622    magn:    0.0001    constr:    0.0000
     atom:   86    charge:    1.4205    magn:   -0.0000    constr:    0.0000
     atom:   87    charge:    1.3615    magn:   -0.0000    constr:    0.0000
     atom:   88    charge:    1.3678    magn:    0.0001    constr:    0.0000
     atom:   89    charge:    1.4345    magn:    0.0001    constr:    0.0000
     atom:   90    charge:    1.4668    magn:    0.0011    constr:    0.0000
     atom:   91    charge:    1.5036    magn:   -0.0000    constr:    0.0000
     atom:   92    charge:    1.5163    magn:   -0.0000    constr:    0.0000
     atom:   93    charge:    1.4622    magn:    0.0001    constr:    0.0000
     atom:   94    charge:    1.4447    magn:    0.0000    constr:    0.0000
     atom:   95    charge:    1.4346    magn:    0.0000    constr:    0.0000
     atom:   96    charge:    1.4494    magn:    0.0000    constr:    0.0000
     atom:   97    charge:    1.4617    magn:    0.0001    constr:    0.0000
     atom:   98    charge:    1.5140    magn:    0.0002    constr:    0.0000

     End of self-consistent calculation

 ------ SPIN UP ------------

[...]

 ------ SPIN DOWN ----------

          k = 0.0000 0.0000 0.0000 (  3407 PWs)   bands (ev):

   -35.2726 -35.1566 -35.0193 -35.0072 -34.9883 -34.9184 -34.8288 -34.4237
   -34.2191 -34.2047 -34.2006 -34.1037 -34.0720 -33.9699 -33.8276 -33.8188
   -33.8054 -33.6255 -33.5719 -33.0502 -32.8680 -32.8627 -32.8598 -32.8492
   -32.8428 -32.8390 -32.8350 -32.8137 -32.7982 -32.6032 -32.5857 -32.4684
   -32.4210 -32.4153 -32.3978 -32.2018 -32.1793 -31.9968 -31.9886 -31.9780
   -31.9706 -31.9049 -31.8805 -31.8332 -31.8224 -31.8107 -31.8066 -26.7926
   -22.8151 -19.1385 -17.7472 -17.7362 -17.7221 -17.6981 -17.6875 -17.6773
   -17.6112 -17.5849 -17.5616 -17.5118 -17.3911 -17.0569 -16.9031 -16.9021
   -16.8726 -16.7557 -16.7430 -16.5198 -16.2273 -16.2021 -16.2003 -16.1965
   -16.1872 -16.1810 -16.1764 -16.1386 -16.0609 -15.8810 -15.6565 -15.0938
   -14.6124 -14.6097 -14.5965 -14.5632 -14.4088 -14.2609 -14.2494 -14.1737
   -14.1407 -14.0536 -13.9641 -13.1382 -13.0021 -12.8992 -12.8819 -12.8731
   -12.8670 -12.8575 -12.8186 -12.7701 -12.7383 -12.6554 -12.6005 -12.5381
   -12.3473 -12.2651 -12.2362 -12.2163 -12.2040 -12.1981 -12.1879 -12.1551
   -12.1011 -12.0431 -12.0278 -12.0159 -12.0001 -11.9632 -11.9461 -11.9138
   -11.7308 -11.6662 -10.9635 -10.9574 -10.9503 -10.9394 -10.8327 -10.7383
   -10.6705 -10.6548 -10.6518 -10.6342 -10.5294 -10.4801 -10.3946 -10.3466
   -10.3320 -10.3108 -10.2706 -10.2547 -10.2305 -10.2297 -10.1559 -10.0777
   -10.0630 -10.0445  -9.9937  -9.9699  -9.9696  -9.9527  -9.8894  -9.8583
    -9.8503  -9.7325  -9.6997  -9.5672  -9.4641  -9.0951  -8.7478  -8.7285
    -8.7174  -8.5416  -8.0939  -7.9800  -7.8411  -7.8238  -7.8141  -7.8140
    -7.8043  -7.8026  -7.7898  -7.7699  -7.7364  -7.7244  -7.4681  -7.3747
    -6.9501  -6.9082  -6.8588  -6.7761  -6.7686  -6.7545  -6.5620  -6.4447
    -5.7508  -5.7258  -5.7110  -5.7104  -5.6110  -5.6071  -5.4870  -5.4428
    -5.4303  -5.4295  -4.9339  -2.5151  -1.8322  -1.0556  -1.0453  -1.0361
    -1.0181  -1.0163  -0.9392  -0.7996  -0.4048  -0.1669  -0.1662  -0.1606
    -0.1588  -0.1530  -0.1447   0.2632   0.2634   0.2660   0.2729   0.2750
     0.2878   0.3692   0.3728   0.3730   0.3903   0.4094   0.4102   0.6163
     0.6527   0.7024   0.7295   0.7347   0.7423   0.7877   0.7990   0.8883
     0.8927   0.9116   0.9221   0.9537   0.9589   1.0927   1.1159   1.1296
     1.1319   1.1404   1.1993   1.2643   1.2965

     highest occupied, lowest unoccupied level (ev):    -4.3760   -2.5151

!    total energy              =   -1540.66170550 Ry
     Harris-Foulkes estimate   =   -1540.66170575 Ry
     estimated scf accuracy    <       0.00000001 Ry

     total magnetization       =     1.00 Bohr mag/cell
     absolute magnetization    =     1.24 Bohr mag/cell

     convergence has been achieved in   3 iterations

     Using ACE for calculation of exact exchange

!!   total energy              =   -1540.66170597 Ry
     Harris-Foulkes estimate   =   -1540.66170622 Ry
     est. exchange err (dexx)  =       0.00000047 Ry
     - averaged Fock potential =     169.87796927 Ry
     + Fock energy (ACE)       =     -84.93938120 Ry

     EXX self-consistency reached

     Writing output data file C2Cn.save/

     General routines

     Parallel routines

     EXX routines

     EXX+US  routines

     EXX+PAW routines

   This run was terminated on:   8:28:29  22Sep2021

   JOB DONE.