     Program PWSCF v.6.4.1 starts on  1Jul2021 at 21:36:30

     R & G space division:  proc/nbgrp/npool/nimage =      64
     Waiting for input...
     Reading input from standard input

     Current dimensions of program PWSCF are:
     Max number of different atomic species (ntypx) = 10
     Max number of k-points (npk) =  40000
     Max angular momentum in pseudopotentials (lmaxx) =  3
               file N.pbe-n-kjpaw_psl.1.0.0.UPF: wavefunction(s)  2S renormalized
               file C.pbe-n-kjpaw_psl.1.0.0.UPF: wavefunction(s)  2S 2P renormalized
               file C.pbe-n-kjpaw_psl.1.0.0.UPF: wavefunction(s)  2S 2P renormalized
               file C.pbe-n-kjpaw_psl.1.0.0.UPF: wavefunction(s)  2S 2P renormalized

     Parameters for DFT-D3 Dispersion Correction:
       Reference C6 values for interpolation:

         atom   Coordination number   C6
         B          0.000           214.36
         B          0.971           150.74
         B          1.944           106.23
         B          2.913            62.89
         B          4.586            56.06
         C1         0.000            98.23
         C1         0.987            86.49
         C1         1.998            58.72
         C1         2.999            51.56
         C1         3.984            36.41
         C2         0.000            98.23
         C2         0.987            86.49
         C2         1.998            58.72
         C2         2.999            51.56
         C2         3.984            36.41
         C3         0.000            98.23
         C3         0.987            86.49
         C3         1.998            58.72
         C3         2.999            51.56
         C3         3.984            36.41
         N          0.000            50.54
         N          0.994            44.25
         N          2.014            39.35
         N          2.990            31.16

       Values used:

         atom   Coordination number  R0_AB[au]  C6      C8
         B          3.326            3.039     62.90   2506.22
         B          3.317            3.039     62.90   2506.43
         B          3.318            3.039     62.90   2506.42
         B          3.323            3.039     62.90   2506.29
         B          3.325            3.039     62.90   2506.26
         B          3.323            3.039     62.90   2506.30
         B          3.326            3.039     62.90   2506.24
         B          3.323            3.039     62.90   2506.30
         B          3.322            3.039     62.90   2506.32
         B          3.307            3.039     62.91   2506.67
         B          3.318            3.039     62.90   2506.42
         B          3.324            3.039     62.90   2506.27
         B          3.322            3.039     62.90   2506.31
         B          3.323            3.039     62.90   2506.30
         B          3.323            3.039     62.90   2506.30
         B          3.324            3.039     62.90   2506.27
         B          3.294            3.039     62.92   2506.96
         B          3.279            3.039     62.92   2507.28
         B          3.319            3.039     62.90   2506.40
         B          3.324            3.039     62.90   2506.27
         B          3.325            3.039     62.90   2506.26
         B          3.322            3.039     62.90   2506.33
         B          3.317            3.039     62.90   2506.44
         B          3.306            3.039     62.91   2506.69
         C2         3.239            2.750     49.57   1433.64
         B          3.279            3.039     62.92   2507.28
         B          3.318            3.039     62.90   2506.42
         B          3.323            3.039     62.90   2506.29
         B          3.319            3.039     62.90   2506.38
         B          3.316            3.039     62.90   2506.45
         B          3.308            3.039     62.91   2506.65
         B          3.306            3.039     62.91   2506.69
         B          3.294            3.039     62.92   2506.96
         B          3.307            3.039     62.91   2506.67
         B          3.318            3.039     62.90   2506.42
         B          3.316            3.039     62.90   2506.46
         B          3.316            3.039     62.90   2506.46
         B          3.316            3.039     62.90   2506.45
         B          3.317            3.039     62.90   2506.44
         B          3.324            3.039     62.90   2506.27
         B          3.322            3.039     62.90   2506.32
         B          3.317            3.039     62.90   2506.43
         B          3.319            3.039     62.90   2506.39
         B          3.316            3.039     62.90   2506.46
         B          3.319            3.039     62.90   2506.38
         B          3.322            3.039     62.90   2506.33
         B          3.323            3.039     62.90   2506.30
         B          3.323            3.039     62.90   2506.30
         B          3.326            3.039     62.90   2506.22
         N          3.129            2.478     31.22    688.74
         N          3.129            2.478     31.22    688.75
         N          3.126            2.478     31.22    688.78
         N          3.128            2.478     31.22    688.76
         N          3.129            2.478     31.22    688.74
         N          3.128            2.478     31.22    688.75
         N          3.128            2.478     31.22    688.75
         N          3.128            2.478     31.22    688.76
         N          3.129            2.478     31.22    688.75
         N          3.125            2.478     31.22    688.78
         N          3.123            2.478     31.22    688.80
[...]
         N          3.126            2.478     31.22    688.78
         N          3.127            2.478     31.22    688.77
         N          3.126            2.478     31.22    688.78
         N          3.126            2.478     31.22    688.77
         N          3.126            2.478     31.22    688.77
         N          3.129            2.478     31.22    688.75
         N          3.129            2.478     31.22    688.75
         N          3.129            2.478     31.22    688.75
         N          3.129            2.478     31.22    688.74
         N          3.127            2.478     31.22    688.77
         N          3.127            2.478     31.22    688.77
         N          3.128            2.478     31.22    688.75
         N          3.129            2.478     31.22    688.75
         N          3.128            2.478     31.22    688.76
         N          3.129            2.478     31.22    688.74

         Molecular C6 ( Ry / a.u.^6 ) =    437749.87

     gamma-point specific algorithms are used

     Message from routine setup:
     DEPRECATED: symmetry with ibrav=0, use correct ibrav instead

     bravais-lattice index     =            0
     lattice parameter (alat)  =      33.2346  a.u.
     unit-cell volume          =   36234.5559 (a.u.)^3
     number of atoms/cell      =           98
     number of atomic types    =            5
     number of electrons       =       391.00
     number of Kohn-Sham states=          245
     kinetic-energy cutoff     =      40.0000  Ry
     charge density cutoff     =     160.0000  Ry
     convergence threshold     =      1.0E-10
     mixing beta               =       0.7000
     number of iterations used =            8  plain     mixing
     Exchange-correlation      = SLA PW PBX PBC ( 1  4  3  4 0 0)
     nstep                     =           50

     celldm(1)=  33.234611  celldm(2)=   0.000000  celldm(3)=   0.000000
     celldm(4)=   0.000000  celldm(5)=   0.000000  celldm(6)=   0.000000

     crystal axes: (cart. coord. in units of alat)
               a(1) = (   1.001034   0.000169   0.000000 )
               a(2) = (  -0.500370   0.867005   0.000000 )
               a(3) = (   0.000000   0.000000   1.137204 )

     reciprocal axes: (cart. coord. in units 2 pi/alat)
               b(1) = (  0.998870  0.576472  0.000000 )
               b(2) = ( -0.000195  1.153283  0.000000 )
               b(3) = (  0.000000  0.000000  0.879350 )

     PseudoPot. # 1 for B  read from file:
     ./pseudo/B.pbe-n-kjpaw_psl.1.0.0.UPF
     MD5 check sum: 8c825a5969375aca5c2c6ad5945b3059
     Pseudo is Projector augmented-wave + core cor, Zval =  3.0
     Generated using "atomic" code by A. Dal Corso v.6.3
     Shape of augmentation charge: PSQ
     Using radial grid of 1059 points,  4 beta functions with:
                l(1) =   0
                l(2) =   0
                l(3) =   1
                l(4) =   1
     Q(r) pseudized with 0 coefficients

     PseudoPot. # 2 for N  read from file:
     ./pseudo/N.pbe-n-kjpaw_psl.1.0.0.UPF
     MD5 check sum: 14c48229446f9f2d411169a3abcbc3fa
     Pseudo is Projector augmented-wave + core cor, Zval =  5.0
     Generated using "atomic" code by A. Dal Corso v.6.3
     Shape of augmentation charge: PSQ
     Using radial grid of 1085 points,  4 beta functions with:
                l(1) =   0
                l(2) =   0
                l(3) =   1
                l(4) =   1
     Q(r) pseudized with 0 coefficients

     PseudoPot. # 3 for C  read from file:
     ./pseudo/C.pbe-n-kjpaw_psl.1.0.0.UPF
     MD5 check sum: 5f16ad9a65e90284d1d834d4ab3b0f7d
     Pseudo is Projector augmented-wave + core cor, Zval =  4.0
     Generated using "atomic" code by A. Dal Corso v.6.3
     Shape of augmentation charge: PSQ
     Using radial grid of 1073 points,  4 beta functions with:
                l(1) =   0
                l(2) =   0
                l(3) =   1
                l(4) =   1
     Q(r) pseudized with 0 coefficients

[...]

     atomic species   valence    mass     pseudopotential
        B              3.00    10.00000     B ( 1.00)
        N              5.00    14.00000     N ( 1.00)
        C1             4.00    12.00000     C ( 1.00)
        C2             4.00    12.00000     C ( 1.00)
        C3             4.00    12.00000     C ( 1.00)

     Starting magnetic structure
     atomic species   magnetization
        B            0.000
        N            0.000
        C1           1.000
        C2           0.000
        C3           0.000

      2 Sym. Ops. (no inversion) found

   Cartesian axes

     site n.     atom                  positions (alat units)
         1           B   tau(   1) = (  -0.0000623   0.0821138   0.5686018  )
         2           B   tau(   2) = (  -0.0715884   0.2061210   0.5686018  )
         3           B   tau(   3) = (  -0.1432627   0.3302279   0.5686018  )
         4           B   tau(   4) = (  -0.2148397   0.4541212   0.5686018  )
         5           B   tau(   5) = (  -0.2858969   0.5779999   0.5686018  )
         6           B   tau(   6) = (  -0.3571927   0.7019745   0.5686018  )
         7           B   tau(   7) = (  -0.4287749   0.8256698   0.5686018  )
         8           B   tau(   8) = (   0.1428962   0.0818479   0.5686018  )
         9           B   tau(   9) = (   0.0710545   0.2051061   0.5686018  )
        10           B   tau(  10) = (  -0.0002709   0.3301011   0.5686018  )
[...]
        98           N   tau(  98) = (   0.5009166   0.7848231   0.5686018  )

     number of k points=     1
                       cart. coord. in units 2pi/alat
        k(    1) = (   0.0000000   0.0000000   0.0000000), wk =   1.0000000

     Occupations read from input

      Spin-up

[...]

      Spin-down

[...]

     Check: negative core charge=   -0.000006

     Initial potential from superposition of free atoms

     starting charge  390.98597, renormalised to  391.00000

     negative rho (up, down):  5.510E-02 8.154E-03
     Starting wfcs are  392 randomized atomic wfcs
     Checking if some PAW data can be deallocated...

     Self-consistent Calculation

[...]

     iteration # 10     ecut=    40.00 Ry     beta= 0.70
     CG style diagonalization
     c_bands:  3 eigenvalues not converged
     c_bands:  5 eigenvalues not converged
     ethr =  3.28E-07,  avg # of iterations =  3.9

[...]

     total energy              =   -1940.16902986 Ry
     Harris-Foulkes estimate   =   -1940.16902986 Ry
     estimated scf accuracy    <          1.3E-12 Ry

[...]

     iteration # 26     ecut=    40.00 Ry     beta= 0.70
     CG style diagonalization
     ethr =  1.00E-13,  avg # of iterations =  3.0

[...]

     Magnetic moment per site:
     atom:    1    charge:    0.8537    magn:    0.0000    constr:    0.0000
     atom:    2    charge:    0.8490    magn:    0.0011    constr:    0.0000
     atom:    3    charge:    0.8498    magn:   -0.0003    constr:    0.0000
     atom:    4    charge:    0.8517    magn:    0.0003    constr:    0.0000
     atom:    5    charge:    0.8545    magn:    0.0009    constr:    0.0000
     atom:    6    charge:    0.8528    magn:   -0.0001    constr:    0.0000
     atom:    7    charge:    0.8538    magn:    0.0013    constr:    0.0000
     atom:    8    charge:    0.8527    magn:    0.0007    constr:    0.0000
     atom:    9    charge:    0.8539    magn:    0.0009    constr:    0.0000
     atom:   10    charge:    0.8465    magn:    0.0023    constr:    0.0000
     atom:   11    charge:    0.8502    magn:   -0.0004    constr:    0.0000
     atom:   12    charge:    0.8552    magn:    0.0003    constr:    0.0000
     atom:   13    charge:    0.8545    magn:    0.0001    constr:    0.0000
     atom:   14    charge:    0.8528    magn:   -0.0001    constr:    0.0000
     atom:   15    charge:    0.8528    magn:    0.0012    constr:    0.0000
     atom:   16    charge:    0.8582    magn:    0.0047    constr:    0.0000
     atom:   17    charge:    0.8652    magn:    0.0107    constr:    0.0000
     atom:   18    charge:    0.8537    magn:    0.0027    constr:    0.0000
     atom:   19    charge:    0.8628    magn:    0.0049    constr:    0.0000
     atom:   20    charge:    0.8552    magn:    0.0003    constr:    0.0000
     atom:   21    charge:    0.8545    magn:    0.0009    constr:    0.0000
     atom:   22    charge:    0.8495    magn:    0.0001    constr:    0.0000
     atom:   23    charge:    0.8465    magn:   -0.0004    constr:    0.0000
     atom:   24    charge:    0.8433    magn:    0.0093    constr:    0.0000
     atom:   25    charge:    1.6235    magn:    0.2010    constr:    0.0000
     atom:   26    charge:    0.8537    magn:    0.0027    constr:    0.0000
     atom:   27    charge:    0.8502    magn:   -0.0004    constr:    0.0000
     atom:   28    charge:    0.8517    magn:    0.0003    constr:    0.0000
     atom:   29    charge:    0.8498    magn:    0.0008    constr:    0.0000
     atom:   30    charge:    0.8500    magn:    0.0009    constr:    0.0000
     atom:   31    charge:    0.8490    magn:    0.0053    constr:    0.0000
     atom:   32    charge:    0.8433    magn:    0.0093    constr:    0.0000
     atom:   33    charge:    0.8652    magn:    0.0107    constr:    0.0000
     atom:   34    charge:    0.8465    magn:    0.0023    constr:    0.0000
     atom:   35    charge:    0.8498    magn:   -0.0003    constr:    0.0000
     atom:   36    charge:    0.8489    magn:   -0.0003    constr:    0.0000
     atom:   37    charge:    0.8483    magn:    0.0004    constr:    0.0000
     atom:   38    charge:    0.8500    magn:    0.0009    constr:    0.0000
     atom:   39    charge:    0.8465    magn:   -0.0004    constr:    0.0000
     atom:   40    charge:    0.8582    magn:    0.0047    constr:    0.0000
     atom:   41    charge:    0.8539    magn:    0.0009    constr:    0.0000
     atom:   42    charge:    0.8490    magn:    0.0011    constr:    0.0000
     atom:   43    charge:    0.8490    magn:    0.0011    constr:    0.0000
     atom:   44    charge:    0.8489    magn:   -0.0003    constr:    0.0000
     atom:   45    charge:    0.8498    magn:    0.0008    constr:    0.0000
     atom:   46    charge:    0.8495    magn:    0.0001    constr:    0.0000
     atom:   47    charge:    0.8528    magn:    0.0012    constr:    0.0000
     atom:   48    charge:    0.8527    magn:    0.0007    constr:    0.0000
     atom:   49    charge:    0.8537    magn:    0.0000    constr:    0.0000
     atom:   50    charge:    2.6990    magn:   -0.0002    constr:    0.0000
     atom:   51    charge:    2.6974    magn:   -0.0003    constr:    0.0000
     atom:   52    charge:    2.6874    magn:    0.0022    constr:    0.0000
     atom:   53    charge:    2.6967    magn:    0.0038    constr:    0.0000
     atom:   54    charge:    2.6985    magn:   -0.0004    constr:    0.0000
     atom:   55    charge:    2.6908    magn:    0.0008    constr:    0.0000
     atom:   56    charge:    2.6935    magn:    0.0003    constr:    0.0000
     atom:   57    charge:    2.6941    magn:    0.0017    constr:    0.0000
     atom:   58    charge:    2.6945    magn:    0.0030    constr:    0.0000
     atom:   59    charge:    2.6854    magn:    0.0162    constr:    0.0000
     atom:   60    charge:    2.6872    magn:   -0.0169    constr:    0.0000
[...]
     atom:   84    charge:    2.6874    magn:    0.0022    constr:    0.0000
     atom:   85    charge:    2.6944    magn:   -0.0000    constr:    0.0000
     atom:   86    charge:    2.6938    magn:    0.0004    constr:    0.0000
     atom:   87    charge:    2.6926    magn:   -0.0001    constr:    0.0000
     atom:   88    charge:    2.6929    magn:   -0.0004    constr:    0.0000
     atom:   89    charge:    2.6991    magn:    0.0045    constr:    0.0000
     atom:   90    charge:    2.6945    magn:    0.0030    constr:    0.0000
     atom:   91    charge:    2.6974    magn:   -0.0003    constr:    0.0000
     atom:   92    charge:    2.7004    magn:    0.0005    constr:    0.0000
     atom:   93    charge:    2.6944    magn:   -0.0000    constr:    0.0000
     atom:   94    charge:    2.6965    magn:   -0.0002    constr:    0.0000
     atom:   95    charge:    2.6978    magn:    0.0004    constr:    0.0000
     atom:   96    charge:    2.6990    magn:    0.0000    constr:    0.0000
     atom:   97    charge:    2.6941    magn:    0.0017    constr:    0.0000
     atom:   98    charge:    2.6990    magn:   -0.0002    constr:    0.0000

     End of self-consistent calculation

 ------ SPIN UP ------------

[...]

 ------ SPIN DOWN ----------

          k = 0.0000 0.0000 0.0000 ( 77467 PWs)   bands (ev):

   -21.7622 -21.5281 -21.3970 -21.3838 -21.3746 -21.2958 -21.2387 -20.8197
   -20.6576 -20.6371 -20.6230 -20.5469 -20.5319 -20.4147 -20.2891 -20.2865
   -20.2562 -20.1084 -20.0927 -19.5516 -19.4135 -19.4009 -19.3948 -19.3894
   -19.3796 -19.3727 -19.3578 -19.3111 -19.3018 -19.1607 -19.1563 -19.0306
   -18.9716 -18.9715 -18.9271 -18.7679 -18.7525 -18.5459 -18.5406 -18.5186
   -18.5063 -18.4691 -18.4155 -18.3972 -18.3683 -18.3402 -18.3291 -16.6064
   -14.8608 -13.0556 -12.7735 -12.7649 -12.7458 -12.7197 -12.7137 -12.6466
   -12.5624 -12.5276 -12.5204 -12.4688 -12.3993 -12.1421 -12.0622 -12.0529
   -12.0264 -11.9754 -11.9334 -11.5388 -11.4074 -11.4003 -11.3901 -11.3837
   -11.3690 -11.3575 -11.3572 -11.3066 -11.2888 -11.0830 -11.0341 -10.8571
   -10.7194 -10.7095 -10.6700 -10.6417 -10.4944 -10.0577 -10.0211  -9.9995
    -9.9269  -9.8731  -9.8117  -9.3872  -9.3108  -9.3031  -9.3011  -9.2882
    -9.2777  -9.2223  -9.0402  -8.9337  -8.9108  -8.9067  -8.9039  -8.8910
    -8.8848  -8.8763  -8.8558  -8.8431  -8.8280  -8.8256  -8.8232  -8.8099
    -8.8029  -8.7938  -8.7915  -8.7321  -8.7230  -8.6495  -8.6321  -8.5971
    -8.4688  -8.4507  -8.2200  -8.1913  -8.1900  -8.0826  -8.0744  -7.8612
    -7.8387  -7.8220  -7.7966  -7.7927  -7.7128  -7.6834  -7.5469  -7.5029
    -7.4958  -7.4740  -7.4538  -7.4416  -7.3999  -7.3996  -7.3838  -7.3364
    -7.3299  -7.3248  -7.2911  -7.2749  -7.2159  -7.1843  -7.1555  -7.0287
    -7.0277  -6.9960  -6.8820  -6.8076  -6.6569  -6.5451  -6.1895  -6.1820
    -6.1551  -6.1322  -6.0754  -6.0661  -6.0641  -6.0572  -6.0526  -6.0458
    -6.0371  -6.0209  -5.9822  -5.9591  -5.8240  -5.8197  -5.7880  -5.7111
    -5.4970  -5.4451  -5.4365  -5.4063  -5.2809  -5.2408  -5.1130  -5.0466
    -4.7805  -4.7703  -4.7460  -4.7449  -4.6675  -4.6560  -4.5523  -4.5127
    -4.4932  -4.4898  -4.1615  -3.3878   0.1845   0.4780   0.7060   0.7138
     0.7165   0.7331   0.7457   0.7527   0.7931   0.8054   0.8069   0.8080
     0.8142   0.8355   0.8538   0.8629   0.8804   0.9202   0.9401   0.9467
     1.0133   1.1688   1.2288   1.2559   1.2626   1.3111   1.3175   1.3177
     1.3225   1.3280   1.3460   1.3648   1.4186   1.4347   1.4368   1.4406
     1.4508   1.4607   1.4909   1.8885   2.0978   2.1020   2.1132   2.1246
     2.1528   2.1925   2.3261   2.3364   2.3923

     highest occupied, lowest unoccupied level (ev):    -4.3513   -4.1615

!    total energy              =   -1940.16902986 Ry
     Harris-Foulkes estimate   =   -1940.16902986 Ry
     estimated scf accuracy    <          4.0E-13 Ry

     total all-electron energy =     -7769.993507 Ry

     The total energy is the sum of the following terms:

     one-electron contribution =  -10644.25313425 Ry
     hartree contribution      =    5407.71605418 Ry
     xc contribution           =    -430.66219290 Ry
     ewald contribution        =    4370.47795465 Ry
     DFT-D3 Dispersion         =      -0.27013358 Ry
     one-center paw contrib.   =    -643.17757796 Ry

     total magnetization       =     1.00 Bohr mag/cell
     absolute magnetization    =     2.03 Bohr mag/cell

     convergence has been achieved in  26 iterations

     negative rho (up, down):  4.801E-01 8.275E-03

     Forces acting on atoms (cartesian axes, Ry/au):

     atom    1 type  1   force =     0.00000675   -0.00000994    0.00000000
     atom    2 type  1   force =     0.00000214   -0.00001210    0.00000000
     atom    3 type  1   force =    -0.00001833   -0.00000366    0.00000000
     atom    4 type  1   force =    -0.00001610    0.00001025    0.00000000
     atom    5 type  1   force =     0.00001111    0.00001384    0.00000000
     atom    6 type  1   force =     0.00001704    0.00000667    0.00000000
     atom    7 type  1   force =     0.00000660   -0.00000423    0.00000000
     atom    8 type  1   force =     0.00000246   -0.00000909    0.00000000
     atom    9 type  1   force =     0.00000298    0.00000227    0.00000000
     atom   10 type  1   force =     0.00000271    0.00000694    0.00000000
     atom   11 type  1   force =     0.00000857    0.00000871    0.00000000
     atom   12 type  1   force =     0.00000327    0.00000534    0.00000000
     atom   13 type  1   force =     0.00001074   -0.00000630    0.00000000
     atom   14 type  1   force =     0.00000264   -0.00001834    0.00000000
     atom   15 type  1   force =    -0.00000334   -0.00000984    0.00000000
     atom   16 type  1   force =    -0.00000797    0.00000518    0.00000000
     atom   17 type  1   force =    -0.00000509    0.00001340    0.00000000
     atom   18 type  1   force =     0.00000530   -0.00000129    0.00000000
     atom   19 type  1   force =     0.00001135   -0.00000677    0.00000000
     atom   20 type  1   force =    -0.00000331   -0.00000545    0.00000000
     atom   21 type  1   force =    -0.00000648   -0.00001657    0.00000000
     atom   22 type  1   force =    -0.00000662   -0.00000957    0.00000000
     atom   23 type  1   force =     0.00000788   -0.00000554    0.00000000
     atom   24 type  1   force =    -0.00001683    0.00000576    0.00000000
     atom   25 type  4   force =    -0.00000847    0.00000546    0.00000000
     atom   26 type  1   force =     0.00000328   -0.00000414    0.00000000
     atom   27 type  1   force =    -0.00000361   -0.00001157    0.00000000
     atom   28 type  1   force =    -0.00001708    0.00000905    0.00000000
     atom   29 type  1   force =    -0.00000600    0.00001406    0.00000000
     atom   30 type  1   force =     0.00002002   -0.00001093    0.00000000
     atom   31 type  1   force =     0.00000419   -0.00000265    0.00000000
     atom   32 type  1   force =    -0.00001353    0.00001134    0.00000000
     atom   33 type  1   force =    -0.00001398   -0.00000198    0.00000000
     atom   34 type  1   force =    -0.00000446   -0.00000531    0.00000000
     atom   35 type  1   force =    -0.00000586    0.00001806    0.00000000
     atom   36 type  1   force =    -0.00000588    0.00001622    0.00000000
     atom   37 type  1   force =    -0.00000257    0.00000146    0.00000000
     atom   38 type  1   force =     0.00001944   -0.00001189    0.00000000
     atom   39 type  1   force =     0.00000895   -0.00000406    0.00000000
     atom   40 type  1   force =    -0.00000806    0.00000477    0.00000000
     atom   41 type  1   force =    -0.00000008   -0.00000308    0.00000000
     atom   42 type  1   force =     0.00001193    0.00000429    0.00000000
     atom   43 type  1   force =     0.00001210   -0.00000714    0.00000000
     atom   44 type  1   force =    -0.00001713   -0.00000301    0.00000000
     atom   45 type  1   force =    -0.00001519   -0.00000178    0.00000000
     atom   46 type  1   force =     0.00000506    0.00001068    0.00000000
     atom   47 type  1   force =     0.00000711    0.00000808    0.00000000
     atom   48 type  1   force =     0.00000942    0.00000264    0.00000000
     atom   49 type  1   force =     0.00001205   -0.00000122    0.00000000
     atom   50 type  2   force =     0.00000637   -0.00000901    0.00000000
     atom   51 type  2   force =    -0.00000989   -0.00000336    0.00000000
     atom   52 type  2   force =    -0.00001553   -0.00000650    0.00000000
     atom   53 type  2   force =     0.00000064   -0.00001431    0.00000000
     atom   54 type  2   force =    -0.00000030   -0.00001049    0.00000000
     atom   55 type  2   force =    -0.00000903    0.00000899    0.00000000
     atom   56 type  2   force =    -0.00000109    0.00000087    0.00000000
     atom   57 type  2   force =    -0.00000211   -0.00000910    0.00000000
     atom   58 type  2   force =    -0.00000217   -0.00001253    0.00000000
     atom   59 type  2   force =    -0.00001847   -0.00000437    0.00000000
     atom   60 type  2   force =    -0.00001168   -0.00000626    0.00000000
[...]
     atom   84 type  2   force =    -0.00000250    0.00001614    0.00000000
     atom   85 type  2   force =     0.00000177    0.00000584    0.00000000
     atom   86 type  2   force =     0.00000439   -0.00000242    0.00000000
     atom   87 type  2   force =     0.00000210   -0.00000377    0.00000000
     atom   88 type  2   force =    -0.00000111   -0.00000212    0.00000000
     atom   89 type  2   force =     0.00000647   -0.00000233    0.00000000
     atom   90 type  2   force =     0.00000932    0.00000755    0.00000000
     atom   91 type  2   force =    -0.00000231    0.00000992    0.00000000
     atom   92 type  2   force =     0.00000671   -0.00000348    0.00000000
     atom   93 type  2   force =    -0.00000401   -0.00000437    0.00000000
     atom   94 type  2   force =     0.00000273   -0.00000421    0.00000000
     atom   95 type  2   force =    -0.00000013   -0.00000766    0.00000000
     atom   96 type  2   force =    -0.00000588    0.00000469    0.00000000
     atom   97 type  2   force =     0.00000685    0.00000626    0.00000000
     atom   98 type  2   force =     0.00001123   -0.00000074    0.00000000

     Total force =     0.000119     Total SCF correction =     0.000001

     Computing stress (Cartesian axis) and pressure

     negative rho (up, down):  4.801E-01 8.275E-03
          total   stress  (Ry/bohr**3)                   (kbar)     P=   -0.17
  -0.00000004   0.00000000   0.00000000         -0.01      0.00      0.00
   0.00000000  -0.00000004   0.00000000          0.00     -0.01      0.00
   0.00000000   0.00000000  -0.00000333          0.00      0.00     -0.49

     Writing output data file C2Cn.save/

     General routines

     Parallel routines

   This run was terminated on:  23:22: 2   1Jul2021

   JOB DONE.