     Program PWSCF v.6.4.1 starts on 29Jul2021 at 23:35: 1

     R & G space division:  proc/nbgrp/npool/nimage =      64
     Waiting for input...
     Reading input from standard input

     Current dimensions of program PWSCF are:
     Max number of different atomic species (ntypx) = 10
     Max number of k-points (npk) =  40000
     Max angular momentum in pseudopotentials (lmaxx) =  3

     IMPORTANT: XC functional enforced from input :
     Exchange-correlation      = HSE ( 1  4 12  4 0 0)
     EXX-fraction              =        0.25
     Any further DFT definition will be discarded
     Please, verify this is what you really want

               file N.pbe-n-kjpaw_psl.1.0.0.UPF: wavefunction(s)  2S renormalized
               file C.pbe-n-kjpaw_psl.1.0.0.UPF: wavefunction(s)  2S 2P renormalized
               file C.pbe-n-kjpaw_psl.1.0.0.UPF: wavefunction(s)  2S 2P renormalized
               file C.pbe-n-kjpaw_psl.1.0.0.UPF: wavefunction(s)  2S 2P renormalized
     EXX fraction changed:   0.32
     EXX Screening parameter changed:    0.0455000

     Parameters for DFT-D3 Dispersion Correction:
       Reference C6 values for interpolation:

         atom   Coordination number   C6
         B          0.000           214.36
         B          0.971           150.74
         B          1.944           106.23
         B          2.913            62.89
         B          4.586            56.06
         C1         0.000            98.23
         C1         0.987            86.49
         C1         1.998            58.72
         C1         2.999            51.56
         C1         3.984            36.41
         C2         0.000            98.23
         C2         0.987            86.49
         C2         1.998            58.72
         C2         2.999            51.56
         C2         3.984            36.41
         C3         0.000            98.23
         C3         0.987            86.49
         C3         1.998            58.72
         C3         2.999            51.56
         C3         3.984            36.41
         N          0.000            50.54
         N          0.994            44.25
         N          2.014            39.35
         N          2.990            31.16

       Values used:

         atom   Coordination number  R0_AB[au]  C6      C8
         B          3.327            3.039     62.90   2506.22
         B          3.317            3.039     62.90   2506.44
         B          3.318            3.039     62.90   2506.43
         B          3.324            3.039     62.90   2506.28
         B          3.325            3.039     62.90   2506.26
         B          3.323            3.039     62.90   2506.30
         B          3.326            3.039     62.90   2506.23
         B          3.324            3.039     62.90   2506.27
         B          3.325            3.039     62.90   2506.26
         B          3.306            3.039     62.91   2506.68
         B          3.319            3.039     62.90   2506.38
         B          3.325            3.039     62.90   2506.26
         B          3.323            3.039     62.90   2506.31
         B          3.323            3.039     62.90   2506.30
         B          3.323            3.039     62.90   2506.29
         B          3.326            3.039     62.90   2506.23
         B          3.293            3.039     62.92   2506.97
         B          3.278            3.039     62.92   2507.31
         B          3.322            3.039     62.90   2506.32
         B          3.325            3.039     62.90   2506.26
         B          3.325            3.039     62.90   2506.26
         B          3.322            3.039     62.90   2506.34
         B          3.317            3.039     62.90   2506.44
         B          3.305            3.039     62.91   2506.70
         C2         3.234            2.750     49.64   1435.60
         B          3.278            3.039     62.92   2507.31
         B          3.319            3.039     62.90   2506.38
         B          3.324            3.039     62.90   2506.28
         B          3.319            3.039     62.90   2506.39
         B          3.316            3.039     62.90   2506.46
         B          3.307            3.039     62.91   2506.67
         B          3.305            3.039     62.91   2506.70
         B          3.293            3.039     62.92   2506.97
         B          3.306            3.039     62.91   2506.68
         B          3.318            3.039     62.90   2506.43
         B          3.316            3.039     62.90   2506.47
         B          3.316            3.039     62.90   2506.46
         B          3.316            3.039     62.90   2506.46
         B          3.317            3.039     62.90   2506.44
         B          3.326            3.039     62.90   2506.23
         B          3.325            3.039     62.90   2506.27
         B          3.317            3.039     62.90   2506.44
         B          3.319            3.039     62.90   2506.40
         B          3.316            3.039     62.90   2506.47
         B          3.319            3.039     62.90   2506.39
         B          3.322            3.039     62.90   2506.34
         B          3.323            3.039     62.90   2506.29
         B          3.324            3.039     62.90   2506.27
         B          3.327            3.039     62.90   2506.22
         N          3.129            2.478     31.22    688.74
         N          3.129            2.478     31.22    688.75
         N          3.126            2.478     31.22    688.78
         N          3.128            2.478     31.22    688.76
         N          3.129            2.478     31.22    688.74
         N          3.128            2.478     31.22    688.75
         N          3.128            2.478     31.22    688.75
         N          3.128            2.478     31.22    688.75
         N          3.129            2.478     31.22    688.74
         N          3.126            2.478     31.22    688.78
         N          3.123            2.478     31.22    688.80
[...]
         N          3.126            2.478     31.22    688.78
         N          3.126            2.478     31.22    688.77
         N          3.126            2.478     31.22    688.78
         N          3.126            2.478     31.22    688.77
         N          3.126            2.478     31.22    688.77
         N          3.129            2.478     31.22    688.75
         N          3.129            2.478     31.22    688.74
         N          3.129            2.478     31.22    688.75
         N          3.129            2.478     31.22    688.74
         N          3.126            2.478     31.22    688.77
         N          3.127            2.478     31.22    688.77
         N          3.128            2.478     31.22    688.75
         N          3.129            2.478     31.22    688.75
         N          3.128            2.478     31.22    688.75
         N          3.129            2.478     31.22    688.74

         Molecular C6 ( Ry / a.u.^6 ) =    437763.38

     gamma-point specific algorithms are used
     Message from routine setup :
     BEWARE: nonlinear core correction is not consistent with hybrid XC

     EXX: grid of k+q points same as grid of k-points

     bravais-lattice index     =            0
     lattice parameter (alat)  =      33.2346  a.u.
     unit-cell volume          =   36237.8900 (a.u.)^3
     number of atoms/cell      =           98
     number of atomic types    =            5
     number of electrons       =       391.00
     number of Kohn-Sham states=          245
     kinetic-energy cutoff     =      25.7300  Ry
     charge density cutoff     =     102.9200  Ry
     cutoff for Fock operator  =     102.9200  Ry
     convergence threshold     =      1.0E-02
     mixing beta               =       0.7000
     number of iterations used =            8  plain     mixing
     Exchange-correlation      = HSE ( 1  4 12  4 0 0)
     EXX-fraction              =        0.32

     celldm(1)=  33.234611  celldm(2)=   0.000000  celldm(3)=   0.000000
     celldm(4)=   0.000000  celldm(5)=   0.000000  celldm(6)=   0.000000

     crystal axes: (cart. coord. in units of alat)
               a(1) = (   1.001048   0.000225   0.000000 )
               a(2) = (  -0.500329   0.867045   0.000000 )
               a(3) = (   0.000000   0.000000   1.137204 )

     reciprocal axes: (cart. coord. in units 2 pi/alat)
               b(1) = (  0.998824  0.576372  0.000000 )
               b(2) = ( -0.000259  1.153193  0.000000 )
               b(3) = (  0.000000  0.000000  0.879350 )

     PseudoPot. # 1 for B  read from file:
     ./pseudo/B.pbe-n-kjpaw_psl.1.0.0.UPF
     MD5 check sum: 8c825a5969375aca5c2c6ad5945b3059
     Pseudo is Projector augmented-wave + core cor, Zval =  3.0
     Generated using "atomic" code by A. Dal Corso v.6.3
     Shape of augmentation charge: PSQ
     Using radial grid of 1059 points,  4 beta functions with:
                l(1) =   0
                l(2) =   0
                l(3) =   1
                l(4) =   1
     Q(r) pseudized with 0 coefficients

     PseudoPot. # 2 for N  read from file:
     ./pseudo/N.pbe-n-kjpaw_psl.1.0.0.UPF
     MD5 check sum: 14c48229446f9f2d411169a3abcbc3fa
     Pseudo is Projector augmented-wave + core cor, Zval =  5.0
     Generated using "atomic" code by A. Dal Corso v.6.3
     Shape of augmentation charge: PSQ
     Using radial grid of 1085 points,  4 beta functions with:
                l(1) =   0
                l(2) =   0
                l(3) =   1
                l(4) =   1
     Q(r) pseudized with 0 coefficients

     PseudoPot. # 3 for C  read from file:
     ./pseudo/C.pbe-n-kjpaw_psl.1.0.0.UPF
     MD5 check sum: 5f16ad9a65e90284d1d834d4ab3b0f7d
     Pseudo is Projector augmented-wave + core cor, Zval =  4.0
     Generated using "atomic" code by A. Dal Corso v.6.3
     Shape of augmentation charge: PSQ
     Using radial grid of 1073 points,  4 beta functions with:
                l(1) =   0
                l(2) =   0
                l(3) =   1
                l(4) =   1
     Q(r) pseudized with 0 coefficients

[...]

     PseudoPot. # 5 for C  read from file:
     ./pseudo/C.pbe-n-kjpaw_psl.1.0.0.UPF
     MD5 check sum: 5f16ad9a65e90284d1d834d4ab3b0f7d
     Pseudo is Projector augmented-wave + core cor, Zval =  4.0
     Generated using "atomic" code by A. Dal Corso v.6.3
     Shape of augmentation charge: PSQ
     Using radial grid of 1073 points,  4 beta functions with:
                l(1) =   0
                l(2) =   0
                l(3) =   1
                l(4) =   1
     Q(r) pseudized with 0 coefficients

     atomic species   valence    mass     pseudopotential
        B              3.00    10.00000     B ( 1.00)
        N              5.00    14.00000     N ( 1.00)
        C1             4.00    12.00000     C ( 1.00)
        C2             4.00    12.00000     C ( 1.00)
        C3             4.00    12.00000     C ( 1.00)

     Starting magnetic structure
     atomic species   magnetization
        B            0.000
        N            0.000
        C1           1.000
[...]
     CG style diagonalization
     c_bands:  1 eigenvalues not converged
     c_bands:  3 eigenvalues not converged
     ethr =  3.02E-04,  avg # of iterations =  4.3

[...]

     Magnetic moment per site:
     atom:    1    charge:    0.8613    magn:   -0.0001    constr:    0.0000
     atom:    2    charge:    0.8554    magn:    0.0008    constr:    0.0000
     atom:    3    charge:    0.8559    magn:    0.0007    constr:    0.0000
     atom:    4    charge:    0.8580    magn:    0.0001    constr:    0.0000
     atom:    5    charge:    0.8602    magn:    0.0002    constr:    0.0000
     atom:    6    charge:    0.8603    magn:    0.0000    constr:    0.0000
     atom:    7    charge:    0.8606    magn:    0.0004    constr:    0.0000
     atom:    8    charge:    0.8577    magn:    0.0001    constr:    0.0000
     atom:    9    charge:    0.8602    magn:   -0.0003    constr:    0.0000
     atom:   10    charge:    0.8469    magn:    0.0043    constr:    0.0000
     atom:   11    charge:    0.8567    magn:    0.0002    constr:    0.0000
     atom:   12    charge:    0.8588    magn:   -0.0002    constr:    0.0000
     atom:   13    charge:    0.8561    magn:    0.0001    constr:    0.0000
     atom:   14    charge:    0.8603    magn:    0.0000    constr:    0.0000
     atom:   15    charge:    0.8592    magn:    0.0005    constr:    0.0000
     atom:   16    charge:    0.8610    magn:    0.0012    constr:    0.0000
     atom:   17    charge:    0.8694    magn:    0.0056    constr:    0.0000
     atom:   18    charge:    0.8581    magn:    0.0086    constr:    0.0000
     atom:   19    charge:    0.8669    magn:   -0.0003    constr:    0.0000
     atom:   20    charge:    0.8588    magn:   -0.0002    constr:    0.0000
     atom:   21    charge:    0.8602    magn:    0.0002    constr:    0.0000
     atom:   22    charge:    0.8556    magn:    0.0001    constr:    0.0000
     atom:   23    charge:    0.8531    magn:   -0.0000    constr:    0.0000
     atom:   24    charge:    0.8472    magn:    0.0051    constr:    0.0000
     atom:   25    charge:    1.5555    magn:    0.1001    constr:    0.0000
     atom:   26    charge:    0.8581    magn:    0.0086    constr:    0.0000
     atom:   27    charge:    0.8567    magn:    0.0002    constr:    0.0000
     atom:   28    charge:    0.8580    magn:    0.0001    constr:    0.0000
     atom:   29    charge:    0.8553    magn:    0.0002    constr:    0.0000
     atom:   30    charge:    0.8553    magn:    0.0009    constr:    0.0000
     atom:   31    charge:    0.8535    magn:    0.0033    constr:    0.0000
     atom:   32    charge:    0.8472    magn:    0.0051    constr:    0.0000
     atom:   33    charge:    0.8694    magn:    0.0056    constr:    0.0000
     atom:   34    charge:    0.8469    magn:    0.0043    constr:    0.0000
     atom:   35    charge:    0.8559    magn:    0.0007    constr:    0.0000
     atom:   36    charge:    0.8540    magn:    0.0004    constr:    0.0000
     atom:   37    charge:    0.8559    magn:    0.0005    constr:    0.0000
     atom:   38    charge:    0.8553    magn:    0.0009    constr:    0.0000
     atom:   39    charge:    0.8531    magn:   -0.0000    constr:    0.0000
     atom:   40    charge:    0.8610    magn:    0.0012    constr:    0.0000
     atom:   41    charge:    0.8602    magn:   -0.0003    constr:    0.0000
     atom:   42    charge:    0.8554    magn:    0.0008    constr:    0.0000
     atom:   43    charge:    0.8533    magn:    0.0002    constr:    0.0000
     atom:   44    charge:    0.8540    magn:    0.0004    constr:    0.0000
     atom:   45    charge:    0.8553    magn:    0.0002    constr:    0.0000
     atom:   46    charge:    0.8556    magn:    0.0001    constr:    0.0000
     atom:   47    charge:    0.8592    magn:    0.0005    constr:    0.0000
     atom:   48    charge:    0.8577    magn:    0.0001    constr:    0.0000
     atom:   49    charge:    0.8613    magn:   -0.0001    constr:    0.0000
     atom:   50    charge:    2.6614    magn:    0.0011    constr:    0.0000
     atom:   51    charge:    2.6539    magn:   -0.0006    constr:    0.0000
     atom:   52    charge:    2.6540    magn:    0.0100    constr:    0.0000
     atom:   53    charge:    2.6532    magn:    0.0026    constr:    0.0000
     atom:   54    charge:    2.6552    magn:    0.0003    constr:    0.0000
     atom:   55    charge:    2.6579    magn:    0.0003    constr:    0.0000
     atom:   56    charge:    2.6537    magn:    0.0002    constr:    0.0000
     atom:   57    charge:    2.6541    magn:    0.0011    constr:    0.0000
     atom:   58    charge:    2.6522    magn:    0.0108    constr:    0.0000
     atom:   59    charge:    2.6460    magn:    0.0271    constr:    0.0000
     atom:   60    charge:    2.6481    magn:    0.0123    constr:    0.0000
[...]
     atom:   84    charge:    2.6540    magn:    0.0100    constr:    0.0000
     atom:   85    charge:    2.6506    magn:    0.0010    constr:    0.0000
     atom:   86    charge:    2.6507    magn:    0.0002    constr:    0.0000
     atom:   87    charge:    2.6544    magn:    0.0000    constr:    0.0000
     atom:   88    charge:    2.6545    magn:   -0.0001    constr:    0.0000
     atom:   89    charge:    2.6528    magn:    0.0047    constr:    0.0000
     atom:   90    charge:    2.6522    magn:    0.0108    constr:    0.0000
     atom:   91    charge:    2.6539    magn:   -0.0006    constr:    0.0000
     atom:   92    charge:    2.6613    magn:    0.0008    constr:    0.0000
     atom:   93    charge:    2.6506    magn:    0.0010    constr:    0.0000
     atom:   94    charge:    2.6615    magn:    0.0004    constr:    0.0000
     atom:   95    charge:    2.6561    magn:    0.0003    constr:    0.0000
     atom:   96    charge:    2.6661    magn:    0.0005    constr:    0.0000
     atom:   97    charge:    2.6541    magn:    0.0011    constr:    0.0000
     atom:   98    charge:    2.6614    magn:    0.0011    constr:    0.0000

     End of self-consistent calculation

 ------ SPIN UP ------------

          k = 0.0000 0.0000 0.0000 ( 40001 PWs)   bands (ev):

[...]

 ------ SPIN DOWN ----------

[...]

     highest occupied, lowest unoccupied level (ev):    -0.7664   -4.4295

!    total energy              =   -1937.64054498 Ry
     Harris-Foulkes estimate   =   -1937.64229368 Ry
     estimated scf accuracy    <       0.00241172 Ry

[...]

     convergence has been achieved in  35 iterations

     Using ACE for calculation of exact exchange

[...]

     EXX: now go back to refine exchange calculation

[...]

     iteration #  6     ecut=    25.73 Ry     beta= 0.70
     CG style diagonalization
     ethr =  7.67E-06,  avg # of iterations =  3.0

[...]

     total energy              =   -1713.11030199 Ry
     Harris-Foulkes estimate   =   -1713.11348595 Ry
     estimated scf accuracy    <       0.01260410 Ry

[...]

     total energy              =   -1713.16366815 Ry
     Harris-Foulkes estimate   =   -1713.16608066 Ry
     est. exchange err (dexx)  =       0.05514146 Ry
     - averaged Fock potential =     193.49821648 Ry
     + Fock energy (ACE)       =     -96.91591581 Ry

     EXX: now go back to refine exchange calculation

     Self-consistent Calculation

     iteration #  1     ecut=    25.73 Ry     beta= 0.70
     CG style diagonalization
     c_bands:  1 eigenvalues not converged
     c_bands:  1 eigenvalues not converged
     ethr =  3.22E-06,  avg # of iterations = 13.2

     negative rho (up, down):  3.360E+00 1.166E-02

     Magnetic moment per site:
     atom:    1    charge:    0.8318    magn:   -0.0001    constr:    0.0000
     atom:    2    charge:    0.8259    magn:    0.0007    constr:    0.0000
     atom:    3    charge:    0.8262    magn:    0.0005    constr:    0.0000
     atom:    4    charge:    0.8285    magn:   -0.0001    constr:    0.0000
     atom:    5    charge:    0.8307    magn:    0.0001    constr:    0.0000
     atom:    6    charge:    0.8309    magn:    0.0000    constr:    0.0000
     atom:    7    charge:    0.8311    magn:    0.0002    constr:    0.0000
     atom:    8    charge:    0.8282    magn:    0.0001    constr:    0.0000
     atom:    9    charge:    0.8308    magn:   -0.0004    constr:    0.0000
     atom:   10    charge:    0.8173    magn:    0.0046    constr:    0.0000
     atom:   11    charge:    0.8273    magn:   -0.0002    constr:    0.0000
     atom:   12    charge:    0.8293    magn:   -0.0002    constr:    0.0000
     atom:   13    charge:    0.8265    magn:   -0.0001    constr:    0.0000
     atom:   14    charge:    0.8309    magn:    0.0000    constr:    0.0000
     atom:   15    charge:    0.8298    magn:    0.0002    constr:    0.0000
     atom:   16    charge:    0.8318    magn:    0.0013    constr:    0.0000
     atom:   17    charge:    0.8428    magn:    0.0096    constr:    0.0000
     atom:   18    charge:    0.8319    magn:    0.0100    constr:    0.0000
     atom:   19    charge:    0.8379    magn:   -0.0001    constr:    0.0000
     atom:   20    charge:    0.8293    magn:   -0.0002    constr:    0.0000
     atom:   21    charge:    0.8307    magn:    0.0001    constr:    0.0000
     atom:   22    charge:    0.8260    magn:   -0.0000    constr:    0.0000
     atom:   23    charge:    0.8234    magn:   -0.0000    constr:    0.0000
     atom:   24    charge:    0.8178    magn:    0.0072    constr:    0.0000
     atom:   25    charge:    1.5564    magn:    0.1883    constr:    0.0000
     atom:   26    charge:    0.8319    magn:    0.0100    constr:    0.0000
     atom:   27    charge:    0.8273    magn:   -0.0002    constr:    0.0000
     atom:   28    charge:    0.8285    magn:   -0.0001    constr:    0.0000
     atom:   29    charge:    0.8256    magn:    0.0002    constr:    0.0000
     atom:   30    charge:    0.8259    magn:    0.0005    constr:    0.0000
     atom:   31    charge:    0.8243    magn:    0.0028    constr:    0.0000
     atom:   32    charge:    0.8178    magn:    0.0072    constr:    0.0000
     atom:   33    charge:    0.8428    magn:    0.0096    constr:    0.0000
     atom:   34    charge:    0.8173    magn:    0.0046    constr:    0.0000
     atom:   35    charge:    0.8262    magn:    0.0005    constr:    0.0000
     atom:   36    charge:    0.8244    magn:    0.0002    constr:    0.0000
     atom:   37    charge:    0.8264    magn:    0.0002    constr:    0.0000
     atom:   38    charge:    0.8259    magn:    0.0005    constr:    0.0000
     atom:   39    charge:    0.8234    magn:   -0.0001    constr:    0.0000
     atom:   40    charge:    0.8318    magn:    0.0012    constr:    0.0000
     atom:   41    charge:    0.8308    magn:   -0.0004    constr:    0.0000
     atom:   42    charge:    0.8259    magn:    0.0007    constr:    0.0000
     atom:   43    charge:    0.8235    magn:    0.0001    constr:    0.0000
     atom:   44    charge:    0.8244    magn:    0.0002    constr:    0.0000
     atom:   45    charge:    0.8256    magn:    0.0002    constr:    0.0000
     atom:   46    charge:    0.8260    magn:   -0.0000    constr:    0.0000
     atom:   47    charge:    0.8298    magn:    0.0002    constr:    0.0000
     atom:   48    charge:    0.8282    magn:    0.0001    constr:    0.0000
     atom:   49    charge:    0.8318    magn:   -0.0001    constr:    0.0000
     atom:   50    charge:    2.6330    magn:    0.0002    constr:    0.0000
     atom:   51    charge:    2.6253    magn:   -0.0005    constr:    0.0000
     atom:   52    charge:    2.6264    magn:    0.0046    constr:    0.0000
     atom:   53    charge:    2.6250    magn:    0.0003    constr:    0.0000
     atom:   54    charge:    2.6267    magn:    0.0002    constr:    0.0000
     atom:   55    charge:    2.6293    magn:    0.0001    constr:    0.0000
     atom:   56    charge:    2.6250    magn:   -0.0001    constr:    0.0000
     atom:   57    charge:    2.6255    magn:    0.0008    constr:    0.0000
     atom:   58    charge:    2.6249    magn:    0.0063    constr:    0.0000
     atom:   59    charge:    2.6197    magn:    0.0209    constr:    0.0000
     atom:   60    charge:    2.6192    magn:    0.0105    constr:    0.0000
[...]
     atom:   84    charge:    2.6263    magn:    0.0046    constr:    0.0000
     atom:   85    charge:    2.6220    magn:    0.0002    constr:    0.0000
     atom:   86    charge:    2.6218    magn:   -0.0002    constr:    0.0000
     atom:   87    charge:    2.6257    magn:   -0.0001    constr:    0.0000
     atom:   88    charge:    2.6259    magn:   -0.0003    constr:    0.0000
     atom:   89    charge:    2.6252    magn:    0.0024    constr:    0.0000
     atom:   90    charge:    2.6248    magn:    0.0063    constr:    0.0000
     atom:   91    charge:    2.6253    magn:   -0.0005    constr:    0.0000
     atom:   92    charge:    2.6329    magn:   -0.0001    constr:    0.0000
     atom:   93    charge:    2.6219    magn:    0.0002    constr:    0.0000
     atom:   94    charge:    2.6329    magn:   -0.0000    constr:    0.0000
     atom:   95    charge:    2.6275    magn:   -0.0001    constr:    0.0000
     atom:   96    charge:    2.6378    magn:   -0.0001    constr:    0.0000
     atom:   97    charge:    2.6255    magn:    0.0009    constr:    0.0000
     atom:   98    charge:    2.6330    magn:    0.0003    constr:    0.0000

     End of self-consistent calculation

 ------ SPIN UP ------------

[...]

 ------ SPIN DOWN ----------

          k = 0.0000 0.0000 0.0000 ( 40001 PWs)   bands (ev):

   -25.3681 -25.1389 -24.9112 -24.8986 -24.8732 -24.8179 -24.7724 -24.3342
   -24.1137 -24.0906 -24.0735 -23.9855 -23.9705 -23.8425 -23.7136 -23.7044
   -23.6832 -23.5277 -23.5139 -22.9377 -22.7581 -22.7388 -22.7244 -22.7180
   -22.7109 -22.7003 -22.6968 -22.6603 -22.6444 -22.4779 -22.4750 -22.3373
   -22.2715 -22.2681 -22.2366 -22.0620 -22.0404 -21.8176 -21.8058 -21.7842
   -21.7834 -21.7220 -21.6790 -21.6341 -21.6092 -21.5897 -21.5767 -19.4743
   -17.4688 -15.6672 -15.2458 -15.2432 -15.2085 -15.1712 -15.1575 -15.0865
   -14.9924 -14.9626 -14.9581 -14.9200 -14.8610 -14.5719 -14.4850 -14.4812
   -14.4338 -14.4132 -14.3565 -13.8933 -13.7645 -13.7366 -13.7190 -13.7131
   -13.6878 -13.6852 -13.6806 -13.6475 -13.6139 -13.3701 -13.3471 -13.1409
   -12.9342 -12.9197 -12.8967 -12.8768 -12.7323 -12.2369 -12.1924 -12.1731
   -12.0810 -12.0212 -11.9653 -11.5189 -11.4308 -11.4142 -11.3882 -11.3739
   -11.3613 -11.3113 -11.1234 -11.0244 -10.9657 -10.9522 -10.9490 -10.9390
   -10.9379 -10.9328 -10.9035 -10.8739 -10.8689 -10.8552 -10.8540 -10.8348
   -10.8117 -10.7857 -10.7796 -10.7756 -10.7002 -10.6903 -10.6649 -10.4941
   -10.4847 -10.4697 -10.2176 -10.1881 -10.1871 -10.1032 -10.0929  -9.8598
    -9.6640  -9.6624  -9.6251  -9.6221  -9.5210  -9.4763  -9.4529  -9.4271
    -9.4001  -9.3609  -9.3334  -9.3183  -9.2942  -9.2925  -9.2551  -9.1780
    -9.1361  -9.1152  -9.0955  -9.0772  -9.0443  -8.8883  -8.8832  -8.8565
    -8.8144  -8.7516  -8.7316  -8.6280  -8.4576  -8.3696  -7.9522  -7.9415
    -7.9083  -7.8276  -7.6810  -7.6525  -7.6253  -7.6216  -7.6085  -7.6049
    -7.5919  -7.5668  -7.5515  -7.5408  -7.4800  -7.4457  -7.2739  -7.2419
    -6.9832  -6.9280  -6.9099  -6.8510  -6.8391  -6.7920  -6.6204  -6.5937
    -6.1681  -6.1554  -6.1217  -6.1157  -6.0279  -5.9761  -5.8960  -5.8575
    -5.8304  -5.7996  -3.4833  -2.0321  -0.2601   0.0936   0.3050   0.3764
     0.3811   0.3834   0.3898   0.4005   0.4196   0.7201   0.7252   0.7299
     0.7371   0.7496   0.7654   0.9444   0.9480   0.9517   0.9561   0.9686
     0.9921   1.3209   1.4168   1.5772   1.5787   1.6135   1.6392   1.6412
     1.6771   1.6783   1.6840   1.6848   1.6938   1.6939   1.7452   1.7706
     1.8142   1.8493   1.9005   1.9197   1.9469   2.0035   2.0088   2.0101
     2.0144   2.0170   2.0295   2.0336   2.0287

     highest occupied, lowest unoccupied level (ev):    -0.8396   -3.4833

!    total energy              =   -1713.17717171 Ry
     Harris-Foulkes estimate   =   -1713.17817856 Ry
     estimated scf accuracy    <       0.00340804 Ry

     total magnetization       =     3.00 Bohr mag/cell
     absolute magnetization    =     3.29 Bohr mag/cell

     convergence has been achieved in   1 iterations

     Using ACE for calculation of exact exchange

!!   total energy              =   -1713.18271284 Ry
     Harris-Foulkes estimate   =   -1713.18371969 Ry
     est. exchange err (dexx)  =       0.00554113 Ry
     - averaged Fock potential =     193.81839488 Ry
     + Fock energy (ACE)       =     -96.90802019 Ry

     EXX self-consistency reached

     Writing output data file C2Cn.save/

     General routines

     Parallel routines

     EXX routines

     EXX+US  routines

     EXX+PAW routines

   This run was terminated on:   3:58:19  30Jul2021

   JOB DONE.