     Program PWSCF v.6.4.1 starts on 30Jul2021 at 23:36:28

     R & G space division:  proc/nbgrp/npool/nimage =      64
     Waiting for input...
     Reading input from standard input

     Current dimensions of program PWSCF are:
     Max number of different atomic species (ntypx) = 10
     Max number of k-points (npk) =  40000
     Max angular momentum in pseudopotentials (lmaxx) =  3

     IMPORTANT: XC functional enforced from input :
     Exchange-correlation      = HSE ( 1  4 12  4 0 0)
     EXX-fraction              =        0.25
     Any further DFT definition will be discarded
     Please, verify this is what you really want

               file N.pbe-n-kjpaw_psl.1.0.0.UPF: wavefunction(s)  2S renormalized
               file C.pbe-n-kjpaw_psl.1.0.0.UPF: wavefunction(s)  2S 2P renormalized
               file C.pbe-n-kjpaw_psl.1.0.0.UPF: wavefunction(s)  2S 2P renormalized
               file C.pbe-n-kjpaw_psl.1.0.0.UPF: wavefunction(s)  2S 2P renormalized
     EXX fraction changed:   0.32
     EXX Screening parameter changed:    0.0455000

     Parameters for DFT-D3 Dispersion Correction:
       Reference C6 values for interpolation:

         atom   Coordination number   C6
         B          0.000           214.36
         B          0.971           150.74
         B          1.944           106.23
         B          2.913            62.89
         B          4.586            56.06
         C1         0.000            98.23
         C1         0.987            86.49
         C1         1.998            58.72
         C1         2.999            51.56
         C1         3.984            36.41
         C2         0.000            98.23
         C2         0.987            86.49
         C2         1.998            58.72
         C2         2.999            51.56
         C2         3.984            36.41
         C3         0.000            98.23
         C3         0.987            86.49
         C3         1.998            58.72
         C3         2.999            51.56
         C3         3.984            36.41
         N          0.000            50.54
         N          0.994            44.25
         N          2.014            39.35
         N          2.990            31.16

       Values used:

         atom   Coordination number  R0_AB[au]  C6      C8
         B          3.326            3.039     62.90   2506.22
         B          3.318            3.039     62.90   2506.42
         B          3.320            3.039     62.90   2506.37
         B          3.324            3.039     62.90   2506.29
         B          3.326            3.039     62.90   2506.23
         B          3.324            3.039     62.90   2506.27
         B          3.327            3.039     62.90   2506.21
         B          3.326            3.039     62.90   2506.24
         B          3.321            3.039     62.90   2506.34
         B          3.311            3.039     62.91   2506.58
         B          3.319            3.039     62.90   2506.40
         B          3.324            3.039     62.90   2506.27
         B          3.324            3.039     62.90   2506.29
         B          3.324            3.039     62.90   2506.27
         B          3.325            3.039     62.90   2506.25
         B          3.329            3.039     62.90   2506.16
         B          3.304            3.039     62.91   2506.74
         B          3.292            3.039     62.92   2507.00
         B          3.318            3.039     62.90   2506.42
         B          3.324            3.039     62.90   2506.27
         B          3.326            3.039     62.90   2506.23
         B          3.322            3.039     62.90   2506.32
         B          3.319            3.039     62.90   2506.39
         B          3.306            3.039     62.91   2506.70
         C2         3.251            2.750     49.40   1428.70
         B          3.292            3.039     62.92   2507.00
         B          3.319            3.039     62.90   2506.40
         B          3.324            3.039     62.90   2506.29
         B          3.321            3.039     62.90   2506.36
         B          3.316            3.039     62.90   2506.45
         B          3.303            3.039     62.91   2506.75
         B          3.306            3.039     62.91   2506.70
         B          3.304            3.039     62.91   2506.74
         B          3.311            3.039     62.91   2506.58
         B          3.320            3.039     62.90   2506.37
         B          3.317            3.039     62.90   2506.43
         B          3.317            3.039     62.90   2506.43
         B          3.316            3.039     62.90   2506.45
         B          3.319            3.039     62.90   2506.39
         B          3.329            3.039     62.90   2506.16
         B          3.321            3.039     62.90   2506.34
         B          3.318            3.039     62.90   2506.42
         B          3.320            3.039     62.90   2506.38
         B          3.317            3.039     62.90   2506.43
         B          3.321            3.039     62.90   2506.36
         B          3.322            3.039     62.90   2506.32
         B          3.325            3.039     62.90   2506.25
         B          3.326            3.039     62.90   2506.24
         B          3.326            3.039     62.90   2506.22
         N          3.130            2.478     31.22    688.74
         N          3.129            2.478     31.22    688.75
         N          3.126            2.478     31.22    688.77
         N          3.128            2.478     31.22    688.75
         N          3.129            2.478     31.22    688.74
         N          3.129            2.478     31.22    688.75
         N          3.129            2.478     31.22    688.75
         N          3.129            2.478     31.22    688.75
         N          3.130            2.478     31.22    688.74
         N          3.126            2.478     31.22    688.77
         N          3.125            2.478     31.22    688.79
[...]
         N          3.126            2.478     31.22    688.77
         N          3.127            2.478     31.22    688.77
         N          3.126            2.478     31.22    688.77
         N          3.127            2.478     31.22    688.77
         N          3.127            2.478     31.22    688.77
         N          3.130            2.478     31.22    688.73
         N          3.130            2.478     31.22    688.74
         N          3.129            2.478     31.22    688.75
         N          3.130            2.478     31.22    688.74
         N          3.127            2.478     31.22    688.77
         N          3.127            2.478     31.22    688.76
         N          3.129            2.478     31.22    688.75
         N          3.129            2.478     31.22    688.74
         N          3.129            2.478     31.22    688.75
         N          3.130            2.478     31.22    688.74

         Molecular C6 ( Ry / a.u.^6 ) =    437704.62

     gamma-point specific algorithms are used
     Message from routine setup :
     BEWARE: nonlinear core correction is not consistent with hybrid XC

     Message from routine setup:
     DEPRECATED: symmetry with ibrav=0, use correct ibrav instead
     EXX: grid of k+q points same as grid of k-points

     bravais-lattice index     =            0
     lattice parameter (alat)  =      33.2346  a.u.
     unit-cell volume          =   36191.4837 (a.u.)^3
     number of atoms/cell      =           98
     number of atomic types    =            5
     number of electrons       =       391.00
     number of Kohn-Sham states=          245
     kinetic-energy cutoff     =      25.7300  Ry
     charge density cutoff     =     102.9200  Ry
     cutoff for Fock operator  =     102.9200  Ry
     convergence threshold     =      7.3E-02
     mixing beta               =       0.7000
     number of iterations used =            8  plain     mixing
     Exchange-correlation      = HSE ( 1  4 12  4 0 0)
     EXX-fraction              =        0.32

     celldm(1)=  33.234611  celldm(2)=   0.000000  celldm(3)=   0.000000
     celldm(4)=   0.000000  celldm(5)=   0.000000  celldm(6)=   0.000000

     crystal axes: (cart. coord. in units of alat)
               a(1) = (   1.000289   0.000429   0.000000 )
               a(2) = (  -0.499773   0.866490   0.000000 )
               a(3) = (   0.000000   0.000000   1.137204 )

     reciprocal axes: (cart. coord. in units 2 pi/alat)
               b(1) = (  0.999464  0.576470  0.000000 )
               b(2) = ( -0.000495  1.153796  0.000000 )
               b(3) = (  0.000000  0.000000  0.879350 )

     PseudoPot. # 1 for B  read from file:
     ./pseudo/B.pbe-n-kjpaw_psl.1.0.0.UPF
     MD5 check sum: 8c825a5969375aca5c2c6ad5945b3059
     Pseudo is Projector augmented-wave + core cor, Zval =  3.0
     Generated using "atomic" code by A. Dal Corso v.6.3
     Shape of augmentation charge: PSQ
     Using radial grid of 1059 points,  4 beta functions with:
                l(1) =   0
                l(2) =   0
                l(3) =   1
                l(4) =   1
     Q(r) pseudized with 0 coefficients

     PseudoPot. # 2 for N  read from file:
     ./pseudo/N.pbe-n-kjpaw_psl.1.0.0.UPF
     MD5 check sum: 14c48229446f9f2d411169a3abcbc3fa
     Pseudo is Projector augmented-wave + core cor, Zval =  5.0
     Generated using "atomic" code by A. Dal Corso v.6.3
     Shape of augmentation charge: PSQ
     Using radial grid of 1085 points,  4 beta functions with:
                l(1) =   0
                l(2) =   0
                l(3) =   1
                l(4) =   1
     Q(r) pseudized with 0 coefficients

     PseudoPot. # 3 for C  read from file:
     ./pseudo/C.pbe-n-kjpaw_psl.1.0.0.UPF
     MD5 check sum: 5f16ad9a65e90284d1d834d4ab3b0f7d
     Pseudo is Projector augmented-wave + core cor, Zval =  4.0
     Generated using "atomic" code by A. Dal Corso v.6.3
     Shape of augmentation charge: PSQ
     Using radial grid of 1073 points,  4 beta functions with:
                l(1) =   0
                l(2) =   0
                l(3) =   1
                l(4) =   1
     Q(r) pseudized with 0 coefficients

[...]

     PseudoPot. # 5 for C  read from file:
     ./pseudo/C.pbe-n-kjpaw_psl.1.0.0.UPF
     MD5 check sum: 5f16ad9a65e90284d1d834d4ab3b0f7d
     Pseudo is Projector augmented-wave + core cor, Zval =  4.0
     Generated using "atomic" code by A. Dal Corso v.6.3
     Shape of augmentation charge: PSQ
     Using radial grid of 1073 points,  4 beta functions with:
                l(1) =   0
                l(2) =   0
                l(3) =   1
                l(4) =   1
     Q(r) pseudized with 0 coefficients

     atomic species   valence    mass     pseudopotential
        B              3.00    10.00000     B ( 1.00)
        N              5.00    14.00000     N ( 1.00)
        C1             4.00    12.00000     C ( 1.00)
        C2             4.00    12.00000     C ( 1.00)
        C3             4.00    12.00000     C ( 1.00)

     Starting magnetic structure
[...]
     Starting wfcs are  392 randomized atomic wfcs

     Self-consistent Calculation

     iteration #  1     ecut=    25.73 Ry     beta= 0.70
     CG style diagonalization
     ethr =  1.00E-02,  avg # of iterations =  3.1

     negative rho (up, down):  2.371E+00 6.607E-03

     total energy              =   -1932.14558506 Ry
     Harris-Foulkes estimate   =   -1942.67201418 Ry
     estimated scf accuracy    <      17.17621574 Ry

     total magnetization       =     1.00 Bohr mag/cell
     absolute magnetization    =     1.96 Bohr mag/cell

[...]

     iteration #  5     ecut=    25.73 Ry     beta= 0.70
     CG style diagonalization
     c_bands:  1 eigenvalues not converged
     ethr =  1.84E-04,  avg # of iterations =  3.3

[...]

     Magnetic moment per site:
     atom:    1    charge:    0.8532    magn:   -0.0003    constr:    0.0000
     atom:    2    charge:    0.8484    magn:   -0.0002    constr:    0.0000
     atom:    3    charge:    0.8511    magn:   -0.0009    constr:    0.0000
     atom:    4    charge:    0.8516    magn:   -0.0005    constr:    0.0000
     atom:    5    charge:    0.8525    magn:   -0.0003    constr:    0.0000
     atom:    6    charge:    0.8518    magn:   -0.0001    constr:    0.0000
     atom:    7    charge:    0.8521    magn:    0.0000    constr:    0.0000
     atom:    8    charge:    0.8499    magn:   -0.0001    constr:    0.0000
     atom:    9    charge:    0.8518    magn:   -0.0007    constr:    0.0000
     atom:   10    charge:    0.8424    magn:   -0.0020    constr:    0.0000
     atom:   11    charge:    0.8511    magn:   -0.0020    constr:    0.0000
     atom:   12    charge:    0.8505    magn:   -0.0004    constr:    0.0000
     atom:   13    charge:    0.8473    magn:    0.0001    constr:    0.0000
     atom:   14    charge:    0.8518    magn:   -0.0000    constr:    0.0000
     atom:   15    charge:    0.8508    magn:    0.0001    constr:    0.0000
     atom:   16    charge:    0.8518    magn:   -0.0003    constr:    0.0000
     atom:   17    charge:    0.8650    magn:   -0.0057    constr:    0.0000
     atom:   18    charge:    0.8591    magn:   -0.0105    constr:    0.0000
     atom:   19    charge:    0.8552    magn:    0.0005    constr:    0.0000
     atom:   20    charge:    0.8498    magn:   -0.0002    constr:    0.0000
     atom:   21    charge:    0.8519    magn:   -0.0001    constr:    0.0000
     atom:   22    charge:    0.8467    magn:   -0.0000    constr:    0.0000
     atom:   23    charge:    0.8439    magn:   -0.0000    constr:    0.0000
     atom:   24    charge:    0.8392    magn:    0.0029    constr:    0.0000
     atom:   25    charge:    1.5405    magn:    0.0095    constr:    0.0000
     atom:   26    charge:    0.8588    magn:   -0.0031    constr:    0.0000
     atom:   27    charge:    0.8480    magn:   -0.0001    constr:    0.0000
     atom:   28    charge:    0.8493    magn:    0.0002    constr:    0.0000
     atom:   29    charge:    0.8469    magn:   -0.0000    constr:    0.0000
     atom:   30    charge:    0.8467    magn:    0.0006    constr:    0.0000
     atom:   31    charge:    0.8449    magn:    0.0025    constr:    0.0000
     atom:   32    charge:    0.8393    magn:    0.0028    constr:    0.0000
     atom:   33    charge:    0.8673    magn:    0.0002    constr:    0.0000
     atom:   34    charge:    0.8409    magn:    0.0002    constr:    0.0000
     atom:   35    charge:    0.8488    magn:   -0.0001    constr:    0.0000
     atom:   36    charge:    0.8461    magn:   -0.0000    constr:    0.0000
     atom:   37    charge:    0.8480    magn:    0.0002    constr:    0.0000
     atom:   38    charge:    0.8466    magn:    0.0005    constr:    0.0000
     atom:   39    charge:    0.8434    magn:    0.0000    constr:    0.0000
     atom:   40    charge:    0.8524    magn:   -0.0003    constr:    0.0000
     atom:   41    charge:    0.8494    magn:    0.0007    constr:    0.0000
     atom:   42    charge:    0.8472    magn:    0.0004    constr:    0.0000
     atom:   43    charge:    0.8449    magn:   -0.0000    constr:    0.0000
     atom:   44    charge:    0.8473    magn:   -0.0003    constr:    0.0000
     atom:   45    charge:    0.8478    magn:   -0.0003    constr:    0.0000
     atom:   46    charge:    0.8469    magn:   -0.0001    constr:    0.0000
     atom:   47    charge:    0.8508    magn:    0.0001    constr:    0.0000
     atom:   48    charge:    0.8494    magn:    0.0001    constr:    0.0000
     atom:   49    charge:    0.8524    magn:   -0.0001    constr:    0.0000
     atom:   50    charge:    2.6815    magn:    0.0008    constr:    0.0000
     atom:   51    charge:    2.6811    magn:    0.0024    constr:    0.0000
     atom:   52    charge:    2.6735    magn:    0.0013    constr:    0.0000
     atom:   53    charge:    2.6971    magn:    0.0045    constr:    0.0000
     atom:   54    charge:    2.6828    magn:    0.0023    constr:    0.0000
     atom:   55    charge:    2.6760    magn:   -0.0001    constr:    0.0000
     atom:   56    charge:    2.6715    magn:   -0.0002    constr:    0.0000
     atom:   57    charge:    2.6727    magn:   -0.0000    constr:    0.0000
     atom:   58    charge:    2.6705    magn:    0.0018    constr:    0.0000
     atom:   59    charge:    2.6709    magn:    0.0173    constr:    0.0000
     atom:   60    charge:    2.7032    magn:    0.0084    constr:    0.0000
[...]
     atom:   84    charge:    2.6725    magn:    0.0034    constr:    0.0000
     atom:   85    charge:    2.6698    magn:    0.0006    constr:    0.0000
     atom:   86    charge:    2.6694    magn:   -0.0001    constr:    0.0000
     atom:   87    charge:    2.6738    magn:    0.0003    constr:    0.0000
     atom:   88    charge:    2.6731    magn:   -0.0001    constr:    0.0000
     atom:   89    charge:    2.6696    magn:    0.0033    constr:    0.0000
     atom:   90    charge:    2.6700    magn:    0.0027    constr:    0.0000
     atom:   91    charge:    2.6712    magn:    0.0005    constr:    0.0000
     atom:   92    charge:    2.6800    magn:   -0.0003    constr:    0.0000
     atom:   93    charge:    2.6723    magn:    0.0008    constr:    0.0000
     atom:   94    charge:    2.6894    magn:    0.0020    constr:    0.0000
     atom:   95    charge:    2.6753    magn:   -0.0001    constr:    0.0000
     atom:   96    charge:    2.6863    magn:    0.0007    constr:    0.0000
     atom:   97    charge:    2.6732    magn:   -0.0001    constr:    0.0000
     atom:   98    charge:    2.6806    magn:    0.0005    constr:    0.0000

     End of self-consistent calculation

 ------ SPIN UP ------------

          k = 0.0000 0.0000 0.0000 ( 39929 PWs)   bands (ev):

[...]

 ------ SPIN DOWN ----------

[...]

     highest occupied, lowest unoccupied level (ev):    -3.0079   -3.8975

!    total energy              =   -1937.79369484 Ry
     Harris-Foulkes estimate   =   -1937.83084868 Ry
     estimated scf accuracy    <       0.05134952 Ry

[...]

     convergence has been achieved in   5 iterations

     Using ACE for calculation of exact exchange

[...]

     EXX: now go back to refine exchange calculation

     Self-consistent Calculation

[...]

     total energy              =   -1713.28308173 Ry
     Harris-Foulkes estimate   =   -1713.33202118 Ry
     estimated scf accuracy    <       0.08074879 Ry

[...]

     iteration #  4     ecut=    25.73 Ry     beta= 0.70
     CG style diagonalization
     ethr =  2.07E-05,  avg # of iterations =  3.9

     negative rho (up, down):  3.374E+00 5.430E-03

     Magnetic moment per site:
     atom:    1    charge:    0.8279    magn:   -0.0002    constr:    0.0000
     atom:    2    charge:    0.8230    magn:    0.0003    constr:    0.0000
     atom:    3    charge:    0.8233    magn:   -0.0004    constr:    0.0000
     atom:    4    charge:    0.8249    magn:   -0.0003    constr:    0.0000
     atom:    5    charge:    0.8272    magn:   -0.0002    constr:    0.0000
     atom:    6    charge:    0.8272    magn:   -0.0000    constr:    0.0000
     atom:    7    charge:    0.8276    magn:    0.0000    constr:    0.0000
     atom:    8    charge:    0.8249    magn:   -0.0000    constr:    0.0000
     atom:    9    charge:    0.8264    magn:   -0.0003    constr:    0.0000
     atom:   10    charge:    0.8145    magn:    0.0004    constr:    0.0000
     atom:   11    charge:    0.8233    magn:   -0.0015    constr:    0.0000
     atom:   12    charge:    0.8246    magn:   -0.0003    constr:    0.0000
     atom:   13    charge:    0.8222    magn:    0.0000    constr:    0.0000
     atom:   14    charge:    0.8272    magn:   -0.0000    constr:    0.0000
     atom:   15    charge:    0.8268    magn:   -0.0000    constr:    0.0000
     atom:   16    charge:    0.8293    magn:   -0.0006    constr:    0.0000
     atom:   17    charge:    0.8387    magn:    0.0013    constr:    0.0000
     atom:   18    charge:    0.8314    magn:   -0.0063    constr:    0.0000
     atom:   19    charge:    0.8323    magn:   -0.0015    constr:    0.0000
     atom:   20    charge:    0.8246    magn:   -0.0005    constr:    0.0000
     atom:   21    charge:    0.8272    magn:   -0.0000    constr:    0.0000
     atom:   22    charge:    0.8224    magn:   -0.0001    constr:    0.0000
     atom:   23    charge:    0.8202    magn:   -0.0001    constr:    0.0000
     atom:   24    charge:    0.8157    magn:    0.0019    constr:    0.0000
     atom:   25    charge:    1.5352    magn:    0.0068    constr:    0.0000
     atom:   26    charge:    0.8333    magn:   -0.0058    constr:    0.0000
     atom:   27    charge:    0.8235    magn:   -0.0000    constr:    0.0000
     atom:   28    charge:    0.8249    magn:    0.0000    constr:    0.0000
     atom:   29    charge:    0.8221    magn:    0.0000    constr:    0.0000
     atom:   30    charge:    0.8223    magn:    0.0004    constr:    0.0000
     atom:   31    charge:    0.8205    magn:    0.0013    constr:    0.0000
     atom:   32    charge:    0.8168    magn:   -0.0013    constr:    0.0000
     atom:   33    charge:    0.8404    magn:   -0.0042    constr:    0.0000
     atom:   34    charge:    0.8154    magn:   -0.0015    constr:    0.0000
     atom:   35    charge:    0.8235    magn:   -0.0002    constr:    0.0000
     atom:   36    charge:    0.8216    magn:   -0.0001    constr:    0.0000
     atom:   37    charge:    0.8234    magn:    0.0001    constr:    0.0000
     atom:   38    charge:    0.8224    magn:    0.0001    constr:    0.0000
     atom:   39    charge:    0.8203    magn:   -0.0006    constr:    0.0000
     atom:   40    charge:    0.8295    magn:   -0.0003    constr:    0.0000
     atom:   41    charge:    0.8263    magn:   -0.0005    constr:    0.0000
     atom:   42    charge:    0.8232    magn:   -0.0001    constr:    0.0000
     atom:   43    charge:    0.8199    magn:    0.0000    constr:    0.0000
     atom:   44    charge:    0.8215    magn:   -0.0000    constr:    0.0000
     atom:   45    charge:    0.8220    magn:   -0.0002    constr:    0.0000
     atom:   46    charge:    0.8224    magn:   -0.0000    constr:    0.0000
     atom:   47    charge:    0.8268    magn:   -0.0000    constr:    0.0000
     atom:   48    charge:    0.8249    magn:   -0.0002    constr:    0.0000
     atom:   49    charge:    0.8280    magn:   -0.0001    constr:    0.0000
     atom:   50    charge:    2.6545    magn:    0.0006    constr:    0.0000
     atom:   51    charge:    2.6473    magn:    0.0013    constr:    0.0000
     atom:   52    charge:    2.6470    magn:    0.0044    constr:    0.0000
     atom:   53    charge:    2.6496    magn:    0.0021    constr:    0.0000
     atom:   54    charge:    2.6474    magn:    0.0014    constr:    0.0000
     atom:   55    charge:    2.6499    magn:   -0.0000    constr:    0.0000
     atom:   56    charge:    2.6453    magn:    0.0000    constr:    0.0000
     atom:   57    charge:    2.6470    magn:    0.0002    constr:    0.0000
     atom:   58    charge:    2.6464    magn:    0.0039    constr:    0.0000
     atom:   59    charge:    2.6419    magn:    0.0237    constr:    0.0000
     atom:   60    charge:    2.6464    magn:    0.0078    constr:    0.0000
[...]
     atom:   84    charge:    2.6470    magn:    0.0011    constr:    0.0000
     atom:   85    charge:    2.6422    magn:    0.0002    constr:    0.0000
     atom:   86    charge:    2.6418    magn:    0.0000    constr:    0.0000
     atom:   87    charge:    2.6459    magn:    0.0004    constr:    0.0000
     atom:   88    charge:    2.6465    magn:   -0.0001    constr:    0.0000
     atom:   89    charge:    2.6457    magn:    0.0033    constr:    0.0000
     atom:   90    charge:    2.6464    magn:    0.0007    constr:    0.0000
     atom:   91    charge:    2.6452    magn:    0.0003    constr:    0.0000
     atom:   92    charge:    2.6530    magn:   -0.0001    constr:    0.0000
     atom:   93    charge:    2.6422    magn:    0.0006    constr:    0.0000
     atom:   94    charge:    2.6537    magn:    0.0011    constr:    0.0000
     atom:   95    charge:    2.6475    magn:    0.0001    constr:    0.0000
     atom:   96    charge:    2.6580    magn:    0.0005    constr:    0.0000
     atom:   97    charge:    2.6470    magn:   -0.0000    constr:    0.0000
     atom:   98    charge:    2.6543    magn:    0.0002    constr:    0.0000

     End of self-consistent calculation

 ------ SPIN UP ------------

[...]

 ------ SPIN DOWN ----------

          k = 0.0000 0.0000 0.0000 ( 39929 PWs)   bands (ev):

   -25.3734 -25.1230 -24.9106 -24.8788 -24.8414 -24.7860 -24.7370 -24.3226
   -24.0931 -24.0766 -24.0427 -23.9590 -23.9519 -23.8151 -23.6894 -23.6689
   -23.6535 -23.5217 -23.4674 -22.9413 -22.7459 -22.7399 -22.7104 -22.7014
   -22.6820 -22.6660 -22.6542 -22.6281 -22.5999 -22.4711 -22.4373 -22.3137
   -22.2462 -22.2326 -22.2089 -22.0401 -22.0282 -21.8114 -21.7885 -21.7779
   -21.7447 -21.6878 -21.6391 -21.5949 -21.5790 -21.5495 -21.4949 -19.7172
   -17.5468 -15.6551 -15.2153 -15.1952 -15.1682 -15.1266 -15.1176 -15.0188
   -14.9639 -14.9361 -14.8970 -14.8515 -14.7924 -14.5371 -14.4527 -14.4231
   -14.3856 -14.3457 -14.3012 -13.8598 -13.7287 -13.6912 -13.6739 -13.6619
   -13.6492 -13.6242 -13.6142 -13.5918 -13.5621 -13.3391 -13.2959 -13.1147
   -12.8905 -12.8773 -12.8429 -12.8150 -12.6641 -12.1935 -12.1462 -12.1217
   -12.0376 -11.9768 -11.9191 -11.4753 -11.3983 -11.3666 -11.3370 -11.3348
   -11.3311 -11.2483 -11.0857 -10.9596 -10.9159 -10.9055 -10.8966 -10.8884
   -10.8788 -10.8742 -10.8537 -10.8174 -10.8168 -10.8030 -10.7945 -10.7857
   -10.7724 -10.7393 -10.7314 -10.7239 -10.6501 -10.6433 -10.6118 -10.5029
   -10.4539 -10.4288 -10.1758 -10.1320 -10.1007 -10.0474 -10.0032  -9.7393
    -9.6430  -9.6145  -9.6039  -9.5819  -9.4863  -9.4521  -9.4430  -9.3733
    -9.3404  -9.3202  -9.2955  -9.2683  -9.2340  -9.2175  -9.1727  -9.1125
    -9.0789  -9.0669  -9.0594  -9.0352  -8.9996  -8.8806  -8.8193  -8.8149
    -8.8027  -8.7437  -8.6856  -8.5785  -8.4027  -8.2585  -7.9075  -7.8714
    -7.8540  -7.7395  -7.6943  -7.6165  -7.6010  -7.5769  -7.5702  -7.5573
    -7.5392  -7.5046  -7.4841  -7.4652  -7.4378  -7.3281  -7.2585  -7.2404
    -6.9477  -6.8673  -6.8554  -6.8199  -6.7852  -6.6229  -6.5920  -6.4957
    -6.1298  -6.1053  -6.0925  -6.0576  -5.9721  -5.9218  -5.8104  -5.7993
    -5.7667  -5.7207  -4.1633  -3.4968  -0.2882   0.0511   0.2689   0.3359
     0.3417   0.3615   0.3666   0.3836   0.4144   0.6634   0.6756   0.6868
     0.6959   0.7098   0.7274   0.9010   0.9091   0.9273   0.9308   0.9474
     0.9783   1.0062   1.3687   1.5992   1.6207   1.6520   1.6558   1.6448
     1.6650   1.6557   1.6792   1.6703   1.7077   1.7132   1.7453   1.7703
     1.8740   1.8928   1.9463   1.9565   1.9668   1.9794   1.9839   1.9884
     1.9990   2.0018   2.0115   2.0164   2.0315

     highest occupied, lowest unoccupied level (ev):    -4.2288   -4.1633

!    total energy              =   -1713.29449372 Ry
     Harris-Foulkes estimate   =   -1713.30584554 Ry
     estimated scf accuracy    <       0.01311522 Ry

     total magnetization       =     1.00 Bohr mag/cell
     absolute magnetization    =     1.35 Bohr mag/cell

     convergence has been achieved in   4 iterations

     Using ACE for calculation of exact exchange

!!   total energy              =   -1713.36455484 Ry
     Harris-Foulkes estimate   =   -1713.37590666 Ry
     est. exchange err (dexx)  =       0.07006112 Ry
     - averaged Fock potential =     193.80011425 Ry
     + Fock energy (ACE)       =     -96.99455729 Ry

     EXX self-consistency reached

     Writing output data file C2Cn.save/

     General routines

     Parallel routines

     EXX routines

     EXX+US  routines

     EXX+PAW routines

   This run was terminated on:   2:24:26  31Jul2021

   JOB DONE.