     Program PWSCF v.6.4.1 starts on  8Jun2021 at 17:32:35

     R & G space division:  proc/nbgrp/npool/nimage =      64
     Waiting for input...
     Reading input from standard input

     Current dimensions of program PWSCF are:
     Max number of different atomic species (ntypx) = 10
     Max number of k-points (npk) =  40000
     Max angular momentum in pseudopotentials (lmaxx) =  3
               file N.pbe-n-kjpaw_psl.1.0.0.UPF: wavefunction(s)  2S renormalized
               file C.pbe-n-kjpaw_psl.1.0.0.UPF: wavefunction(s)  2S 2P renormalized
               file C.pbe-n-kjpaw_psl.1.0.0.UPF: wavefunction(s)  2S 2P renormalized
               file C.pbe-n-kjpaw_psl.1.0.0.UPF: wavefunction(s)  2S 2P renormalized

     Parameters for DFT-D3 Dispersion Correction:
       Reference C6 values for interpolation:

         atom   Coordination number   C6
         B          0.000           214.36
         B          0.971           150.74
         B          1.944           106.23
         B          2.913            62.89
         B          4.586            56.06
         C1         0.000            98.23
         C1         0.987            86.49
         C1         1.998            58.72
         C1         2.999            51.56
         C1         3.984            36.41
         C2         0.000            98.23
         C2         0.987            86.49
         C2         1.998            58.72
         C2         2.999            51.56
         C2         3.984            36.41
         C3         0.000            98.23
         C3         0.987            86.49
         C3         1.998            58.72
         C3         2.999            51.56
         C3         3.984            36.41
         N          0.000            50.54
         N          0.994            44.25
         N          2.014            39.35
         N          2.990            31.16

       Values used:

         atom   Coordination number  R0_AB[au]  C6      C8
         B          3.326            3.039     62.90   2506.23
         B          3.317            3.039     62.90   2506.44
         B          3.318            3.039     62.90   2506.43
         B          3.323            3.039     62.90   2506.29
         B          3.325            3.039     62.90   2506.25
         B          3.324            3.039     62.90   2506.29
         B          3.326            3.039     62.90   2506.23
         B          3.324            3.039     62.90   2506.27
         B          3.323            3.039     62.90   2506.31
         B          3.306            3.039     62.91   2506.69
         B          3.319            3.039     62.90   2506.40
         B          3.325            3.039     62.90   2506.26
         B          3.323            3.039     62.90   2506.30
         B          3.324            3.039     62.90   2506.29
         B          3.324            3.039     62.90   2506.28
         B          3.326            3.039     62.90   2506.23
         B          3.294            3.039     62.92   2506.96
         B          3.281            3.039     62.92   2507.25
         B          3.322            3.039     62.90   2506.33
         B          3.325            3.039     62.90   2506.26
         B          3.325            3.039     62.90   2506.25
         B          3.322            3.039     62.90   2506.32
         B          3.318            3.039     62.90   2506.42
         B          3.305            3.039     62.91   2506.72
         C2         3.237            2.750     49.60   1434.49
         B          3.281            3.039     62.92   2507.25
         B          3.319            3.039     62.90   2506.40
         B          3.323            3.039     62.90   2506.29
         B          3.319            3.039     62.90   2506.38
         B          3.317            3.039     62.90   2506.45
         B          3.306            3.039     62.91   2506.69
         B          3.305            3.039     62.91   2506.72
         B          3.294            3.039     62.92   2506.96
         B          3.306            3.039     62.91   2506.69
         B          3.318            3.039     62.90   2506.43
         B          3.316            3.039     62.90   2506.47
         B          3.316            3.039     62.90   2506.45
         B          3.317            3.039     62.90   2506.45
         B          3.318            3.039     62.90   2506.42
         B          3.326            3.039     62.90   2506.23
         B          3.323            3.039     62.90   2506.31
         B          3.317            3.039     62.90   2506.44
         B          3.319            3.039     62.90   2506.40
         B          3.316            3.039     62.90   2506.47
         B          3.319            3.039     62.90   2506.38
         B          3.322            3.039     62.90   2506.32
         B          3.324            3.039     62.90   2506.28
         B          3.324            3.039     62.90   2506.27
         B          3.326            3.039     62.90   2506.23
         N          3.129            2.478     31.22    688.74
         N          3.129            2.478     31.22    688.75
         N          3.125            2.478     31.22    688.78
         N          3.128            2.478     31.22    688.76
         N          3.129            2.478     31.22    688.74
         N          3.128            2.478     31.22    688.75
         N          3.128            2.478     31.22    688.75
         N          3.128            2.478     31.22    688.75
         N          3.129            2.478     31.22    688.75
         N          3.125            2.478     31.22    688.78
         N          3.123            2.478     31.22    688.80
[...]
         N          3.125            2.478     31.22    688.78
         N          3.126            2.478     31.22    688.77
         N          3.126            2.478     31.22    688.78
         N          3.126            2.478     31.22    688.77
         N          3.127            2.478     31.22    688.77
         N          3.129            2.478     31.22    688.74
         N          3.129            2.478     31.22    688.75
         N          3.129            2.478     31.22    688.75
         N          3.129            2.478     31.22    688.74
         N          3.126            2.478     31.22    688.77
         N          3.127            2.478     31.22    688.77
         N          3.128            2.478     31.22    688.75
         N          3.129            2.478     31.22    688.74
         N          3.128            2.478     31.22    688.75
         N          3.129            2.478     31.22    688.74

         Molecular C6 ( Ry / a.u.^6 ) =    437750.45

     gamma-point specific algorithms are used

     Message from routine setup:
     DEPRECATED: symmetry with ibrav=0, use correct ibrav instead

     bravais-lattice index     =            0
     lattice parameter (alat)  =      33.2346  a.u.
     unit-cell volume          =   36232.1309 (a.u.)^3
     number of atoms/cell      =           98
     number of atomic types    =            5
     number of electrons       =       391.00
     number of Kohn-Sham states=          245
     kinetic-energy cutoff     =      40.0000  Ry
     charge density cutoff     =     160.0000  Ry
     convergence threshold     =      1.0E-06
     mixing beta               =       0.7000
     number of iterations used =            8  plain     mixing
     Exchange-correlation      = SLA PW PBX PBC ( 1  4  3  4 0 0)
     nstep                     =           50

     celldm(1)=  33.234611  celldm(2)=   0.000000  celldm(3)=   0.000000
     celldm(4)=   0.000000  celldm(5)=   0.000000  celldm(6)=   0.000000

     crystal axes: (cart. coord. in units of alat)
               a(1) = (   1.000986   0.000195   0.000000 )
               a(2) = (  -0.500324   0.866976   0.000000 )
               a(3) = (   0.000000   0.000000   1.137204 )

     reciprocal axes: (cart. coord. in units 2 pi/alat)
               b(1) = (  0.998903  0.576458  0.000000 )
               b(2) = ( -0.000224  1.153304  0.000000 )
               b(3) = (  0.000000  0.000000  0.879350 )

     PseudoPot. # 1 for B  read from file:
     ./pseudo/B.pbe-n-kjpaw_psl.1.0.0.UPF
     MD5 check sum: 8c825a5969375aca5c2c6ad5945b3059
     Pseudo is Projector augmented-wave + core cor, Zval =  3.0
     Generated using "atomic" code by A. Dal Corso v.6.3
     Shape of augmentation charge: PSQ
     Using radial grid of 1059 points,  4 beta functions with:
                l(1) =   0
                l(2) =   0
                l(3) =   1
                l(4) =   1
     Q(r) pseudized with 0 coefficients

     PseudoPot. # 2 for N  read from file:
     ./pseudo/N.pbe-n-kjpaw_psl.1.0.0.UPF
     MD5 check sum: 14c48229446f9f2d411169a3abcbc3fa
     Pseudo is Projector augmented-wave + core cor, Zval =  5.0
     Generated using "atomic" code by A. Dal Corso v.6.3
     Shape of augmentation charge: PSQ
     Using radial grid of 1085 points,  4 beta functions with:
                l(1) =   0
                l(2) =   0
                l(3) =   1
                l(4) =   1
     Q(r) pseudized with 0 coefficients

     PseudoPot. # 3 for C  read from file:
     ./pseudo/C.pbe-n-kjpaw_psl.1.0.0.UPF
     MD5 check sum: 5f16ad9a65e90284d1d834d4ab3b0f7d
     Pseudo is Projector augmented-wave + core cor, Zval =  4.0
     Generated using "atomic" code by A. Dal Corso v.6.3
     Shape of augmentation charge: PSQ
     Using radial grid of 1073 points,  4 beta functions with:
                l(1) =   0
                l(2) =   0
                l(3) =   1
                l(4) =   1
     Q(r) pseudized with 0 coefficients

[...]

     atomic species   valence    mass     pseudopotential
        B              3.00    10.00000     B ( 1.00)
        N              5.00    14.00000     N ( 1.00)
        C1             4.00    12.00000     C ( 1.00)
        C2             4.00    12.00000     C ( 1.00)
        C3             4.00    12.00000     C ( 1.00)

     Starting magnetic structure
     atomic species   magnetization
        B            0.000
        N            0.000
        C1           1.000
        C2           0.000
        C3           0.000

      2 Sym. Ops. (no inversion) found

   Cartesian axes

     site n.     atom                  positions (alat units)
         1           B   tau(   1) = (  -0.0000690   0.0821323   0.5686018  )
         2           B   tau(   2) = (  -0.0715547   0.2062045   0.5686018  )
         3           B   tau(   3) = (  -0.1431934   0.3302665   0.5686018  )
         4           B   tau(   4) = (  -0.2148096   0.4541034   0.5686018  )
         5           B   tau(   5) = (  -0.2858939   0.5780093   0.5686018  )
         6           B   tau(   6) = (  -0.3571699   0.7019705   0.5686018  )
         7           B   tau(   7) = (  -0.4287457   0.8256506   0.5686018  )
         8           B   tau(   8) = (   0.1428818   0.0818128   0.5686018  )
         9           B   tau(   9) = (   0.0710824   0.2050874   0.5686018  )
        10           B   tau(  10) = (  -0.0001975   0.3302105   0.5686018  )
[...]

     number of k points=     1
                       cart. coord. in units 2pi/alat
        k(    1) = (   0.0000000   0.0000000   0.0000000), wk =   1.0000000

     Occupations read from input

      Spin-up

[...]

      Spin-down

[...]

     Check: negative core charge=   -0.000006

     Initial potential from superposition of free atoms

     starting charge  390.98597, renormalised to  391.00000

     negative rho (up, down):  5.511E-02 9.879E-03
     Starting wfcs are  392 randomized atomic wfcs
     Checking if some PAW data can be deallocated...

     Self-consistent Calculation

[...]

     iteration # 11     ecut=    40.00 Ry     beta= 0.70
     CG style diagonalization
     c_bands:  1 eigenvalues not converged
     ethr =  5.75E-08,  avg # of iterations =  3.4

[...]

     total energy              =   -1940.17816425 Ry
     Harris-Foulkes estimate   =   -1940.17816429 Ry
     estimated scf accuracy    <       0.00000009 Ry

[...]

     iteration # 17     ecut=    40.00 Ry     beta= 0.70
     CG style diagonalization
     ethr =  2.40E-11,  avg # of iterations =  3.4

[...]

     Magnetic moment per site:
     atom:    1    charge:    0.8515    magn:   -0.0001    constr:    0.0000
     atom:    2    charge:    0.8465    magn:   -0.0005    constr:    0.0000
     atom:    3    charge:    0.8475    magn:   -0.0004    constr:    0.0000
     atom:    4    charge:    0.8496    magn:    0.0002    constr:    0.0000
     atom:    5    charge:    0.8525    magn:   -0.0010    constr:    0.0000
     atom:    6    charge:    0.8508    magn:    0.0002    constr:    0.0000
     atom:    7    charge:    0.8519    magn:   -0.0009    constr:    0.0000
     atom:    8    charge:    0.8507    magn:   -0.0008    constr:    0.0000
     atom:    9    charge:    0.8516    magn:   -0.0011    constr:    0.0000
     atom:   10    charge:    0.8435    magn:   -0.0036    constr:    0.0000
     atom:   11    charge:    0.8475    magn:   -0.0002    constr:    0.0000
     atom:   12    charge:    0.8530    magn:   -0.0015    constr:    0.0000
     atom:   13    charge:    0.8524    magn:    0.0002    constr:    0.0000
     atom:   14    charge:    0.8508    magn:    0.0002    constr:    0.0000
     atom:   15    charge:    0.8508    magn:   -0.0006    constr:    0.0000
     atom:   16    charge:    0.8563    magn:   -0.0061    constr:    0.0000
     atom:   17    charge:    0.8626    magn:   -0.0131    constr:    0.0000
     atom:   18    charge:    0.8507    magn:   -0.0104    constr:    0.0000
     atom:   19    charge:    0.8603    magn:   -0.0101    constr:    0.0000
     atom:   20    charge:    0.8530    magn:   -0.0015    constr:    0.0000
     atom:   21    charge:    0.8525    magn:   -0.0010    constr:    0.0000
     atom:   22    charge:    0.8473    magn:    0.0000    constr:    0.0000
     atom:   23    charge:    0.8440    magn:   -0.0005    constr:    0.0000
     atom:   24    charge:    0.8404    magn:   -0.0091    constr:    0.0000
     atom:   25    charge:    1.5844    magn:   -0.1485    constr:    0.0000
     atom:   26    charge:    0.8507    magn:   -0.0104    constr:    0.0000
     atom:   27    charge:    0.8475    magn:   -0.0002    constr:    0.0000
     atom:   28    charge:    0.8496    magn:    0.0002    constr:    0.0000
     atom:   29    charge:    0.8474    magn:   -0.0008    constr:    0.0000
     atom:   30    charge:    0.8476    magn:   -0.0000    constr:    0.0000
     atom:   31    charge:    0.8466    magn:   -0.0025    constr:    0.0000
     atom:   32    charge:    0.8404    magn:   -0.0091    constr:    0.0000
     atom:   33    charge:    0.8626    magn:   -0.0131    constr:    0.0000
     atom:   34    charge:    0.8435    magn:   -0.0036    constr:    0.0000
     atom:   35    charge:    0.8475    magn:   -0.0004    constr:    0.0000
     atom:   36    charge:    0.8465    magn:    0.0004    constr:    0.0000
     atom:   37    charge:    0.8459    magn:    0.0004    constr:    0.0000
     atom:   38    charge:    0.8476    magn:   -0.0000    constr:    0.0000
     atom:   39    charge:    0.8440    magn:   -0.0005    constr:    0.0000
     atom:   40    charge:    0.8563    magn:   -0.0061    constr:    0.0000
     atom:   41    charge:    0.8516    magn:   -0.0011    constr:    0.0000
     atom:   42    charge:    0.8465    magn:   -0.0005    constr:    0.0000
     atom:   43    charge:    0.8466    magn:   -0.0011    constr:    0.0000
     atom:   44    charge:    0.8465    magn:    0.0004    constr:    0.0000
     atom:   45    charge:    0.8474    magn:   -0.0008    constr:    0.0000
     atom:   46    charge:    0.8473    magn:    0.0000    constr:    0.0000
     atom:   47    charge:    0.8508    magn:   -0.0006    constr:    0.0000
     atom:   48    charge:    0.8508    magn:   -0.0008    constr:    0.0000
     atom:   49    charge:    0.8515    magn:   -0.0001    constr:    0.0000
     atom:   50    charge:    2.6488    magn:    0.0013    constr:    0.0000
     atom:   51    charge:    2.6495    magn:    0.0005    constr:    0.0000
     atom:   52    charge:    2.6369    magn:    0.0084    constr:    0.0000
     atom:   53    charge:    2.6481    magn:    0.0028    constr:    0.0000
     atom:   54    charge:    2.6499    magn:    0.0007    constr:    0.0000
     atom:   55    charge:    2.6403    magn:   -0.0001    constr:    0.0000
     atom:   56    charge:    2.6435    magn:   -0.0003    constr:    0.0000
     atom:   57    charge:    2.6455    magn:   -0.0018    constr:    0.0000
     atom:   58    charge:    2.6455    magn:    0.0060    constr:    0.0000
     atom:   59    charge:    2.6363    magn:    0.0305    constr:    0.0000
     atom:   60    charge:    2.6378    magn:    0.0147    constr:    0.0000
[...]
     atom:   84    charge:    2.6369    magn:    0.0084    constr:    0.0000
     atom:   85    charge:    2.6454    magn:    0.0012    constr:    0.0000
     atom:   86    charge:    2.6441    magn:   -0.0001    constr:    0.0000
     atom:   87    charge:    2.6426    magn:    0.0005    constr:    0.0000
     atom:   88    charge:    2.6434    magn:    0.0003    constr:    0.0000
     atom:   89    charge:    2.6474    magn:    0.0038    constr:    0.0000
     atom:   90    charge:    2.6455    magn:    0.0060    constr:    0.0000
     atom:   91    charge:    2.6495    magn:    0.0005    constr:    0.0000
     atom:   92    charge:    2.6494    magn:    0.0003    constr:    0.0000
     atom:   93    charge:    2.6454    magn:    0.0012    constr:    0.0000
     atom:   94    charge:    2.6463    magn:    0.0006    constr:    0.0000
     atom:   95    charge:    2.6485    magn:    0.0003    constr:    0.0000
     atom:   96    charge:    2.6482    magn:    0.0009    constr:    0.0000
     atom:   97    charge:    2.6455    magn:   -0.0018    constr:    0.0000
     atom:   98    charge:    2.6488    magn:    0.0013    constr:    0.0000

     End of self-consistent calculation

 ------ SPIN UP ------------

[...]

 ------ SPIN DOWN ----------

          k = 0.0000 0.0000 0.0000 ( 77475 PWs)   bands (ev):

   -21.8459 -21.6303 -21.3901 -21.3804 -21.3543 -21.2879 -21.2627 -20.8710
   -20.6540 -20.6321 -20.6141 -20.5377 -20.5295 -20.4165 -20.2830 -20.2777
   -20.2492 -20.1067 -20.1003 -19.5769 -19.4152 -19.3979 -19.3859 -19.3813
   -19.3715 -19.3611 -19.3476 -19.3011 -19.2968 -19.1529 -19.1478 -19.0273
   -18.9596 -18.9579 -18.9151 -18.7602 -18.7478 -18.5420 -18.5317 -18.5105
   -18.5063 -18.4580 -18.4001 -18.3849 -18.3477 -18.3307 -18.3096 -16.6302
   -14.6790 -13.1754 -12.7761 -12.7743 -12.7415 -12.7121 -12.7073 -12.6428
   -12.5575 -12.5201 -12.5118 -12.4733 -12.4049 -12.1483 -12.0600 -12.0485
   -12.0148 -11.9823 -11.9329 -11.5641 -11.4218 -11.4107 -11.3905 -11.3839
   -11.3601 -11.3550 -11.3492 -11.3034 -11.2897 -11.0589 -11.0264 -10.8753
   -10.7166 -10.7017 -10.6694 -10.6442 -10.4955 -10.0749 -10.0275 -10.0016
    -9.9240  -9.8622  -9.8013  -9.4062  -9.3192  -9.3133  -9.3054  -9.2850
    -9.2718  -9.2145  -9.0662  -8.9505  -8.9092  -8.9054  -8.9047  -8.8919
    -8.8913  -8.8822  -8.8792  -8.8548  -8.8238  -8.8169  -8.8152  -8.8094
    -8.7923  -8.7885  -8.7863  -8.7253  -8.7138  -8.6429  -8.6351  -8.6309
    -8.4557  -8.4213  -8.2121  -8.1850  -8.1827  -8.0858  -8.0757  -7.9260
    -7.8567  -7.8211  -7.8011  -7.7855  -7.7030  -7.6867  -7.5730  -7.5099
    -7.4997  -7.4692  -7.4440  -7.4379  -7.4262  -7.3890  -7.3865  -7.3321
    -7.3271  -7.3204  -7.2914  -7.2691  -7.2168  -7.1676  -7.1640  -7.0333
    -7.0171  -6.9917  -6.8818  -6.7952  -6.6294  -6.5247  -6.2477  -6.1959
    -6.1762  -6.1433  -6.0812  -6.0657  -6.0557  -6.0501  -6.0449  -6.0419
    -6.0247  -6.0119  -5.9677  -5.9638  -5.8074  -5.8044  -5.7673  -5.6888
    -5.5183  -5.4379  -5.4255  -5.3994  -5.2547  -5.2021  -5.0808  -5.0242
    -4.7760  -4.7688  -4.7481  -4.7339  -4.6539  -4.6284  -4.5532  -4.4964
    -4.4823  -4.4720  -4.0625  -2.8337  -0.0014   0.1771   0.6705   0.6781
     0.7066   0.7247   0.7321   0.7389   0.7842   0.7928   0.8054   0.8091
     0.8156   0.8339   0.8431   0.8513   0.8782   0.9021   0.9165   0.9500
     0.9662   1.1332   1.2256   1.2295   1.2537   1.2715   1.3148   1.3227
     1.3284   1.3337   1.3421   1.3635   1.3866   1.4350   1.4386   1.4422
     1.4513   1.4593   1.4813   1.8830   2.0932   2.0954   2.0958   2.1129
     2.2688   2.3029   2.3333   2.3347   2.3879

     highest occupied, lowest unoccupied level (ev):    -3.6470   -4.0625

!    total energy              =   -1940.17816427 Ry
     Harris-Foulkes estimate   =   -1940.17816427 Ry
     estimated scf accuracy    <          4.2E-09 Ry

     total all-electron energy =     -7770.002641 Ry

     The total energy is the sum of the following terms:

     one-electron contribution =  -10643.57651298 Ry
     hartree contribution      =    5407.37725534 Ry
     xc contribution           =    -430.67606118 Ry
     ewald contribution        =    4370.14442181 Ry
     DFT-D3 Dispersion         =      -0.27012401 Ry
     one-center paw contrib.   =    -643.17714325 Ry

     total magnetization       =     1.00 Bohr mag/cell
     absolute magnetization    =     2.39 Bohr mag/cell

     convergence has been achieved in  17 iterations

     negative rho (up, down):  4.795E-01 7.793E-03

     Forces acting on atoms (cartesian axes, Ry/au):

     atom    1 type  1   force =    -0.00001506   -0.00005737    0.00000000
     atom    2 type  1   force =    -0.00005363    0.00002898    0.00000000
     atom    3 type  1   force =    -0.00000511   -0.00001644    0.00000000
     atom    4 type  1   force =    -0.00004660   -0.00003861    0.00000000
     atom    5 type  1   force =    -0.00006185   -0.00009604    0.00000000
     atom    6 type  1   force =    -0.00001131   -0.00004373    0.00000000
     atom    7 type  1   force =    -0.00005470   -0.00007107    0.00000000
     atom    8 type  1   force =     0.00000131   -0.00003844    0.00000000
     atom    9 type  1   force =     0.00005508    0.00003411    0.00000000
     atom   10 type  1   force =     0.00011292    0.00001922    0.00000000
     atom   11 type  1   force =     0.00002417   -0.00007296    0.00000000
     atom   12 type  1   force =    -0.00000739   -0.00003899    0.00000000
     atom   13 type  1   force =    -0.00002212   -0.00004210    0.00000000
     atom   14 type  1   force =    -0.00001452   -0.00006982    0.00000000
     atom   15 type  1   force =    -0.00004541    0.00004694    0.00000000
     atom   16 type  1   force =    -0.00005108   -0.00001603    0.00000000
     atom   17 type  1   force =     0.00005612    0.00001806    0.00000000
     atom   18 type  1   force =     0.00008049    0.00002572    0.00000000
     atom   19 type  1   force =    -0.00002336    0.00001085    0.00000000
     atom   20 type  1   force =     0.00003565   -0.00003167    0.00000000
     atom   21 type  1   force =     0.00006223    0.00004645    0.00000000
     atom   22 type  1   force =     0.00005947    0.00005123    0.00000000
     atom   23 type  1   force =    -0.00003411    0.00011157    0.00000000
     atom   24 type  1   force =    -0.00009992    0.00002564    0.00000000
     atom   25 type  4   force =     0.00005985   -0.00000769    0.00000000
     atom   26 type  1   force =     0.00000609   -0.00006763    0.00000000
     atom   27 type  1   force =     0.00008074   -0.00000450    0.00000000
     atom   28 type  1   force =     0.00004679    0.00003491    0.00000000
     atom   29 type  1   force =     0.00006962    0.00009131    0.00000000
     atom   30 type  1   force =     0.00002435    0.00006245    0.00000000
     atom   31 type  1   force =    -0.00008695    0.00005801    0.00000000
     atom   32 type  1   force =    -0.00006092    0.00006918    0.00000000
     atom   33 type  1   force =     0.00002874   -0.00004180    0.00000000
     atom   34 type  1   force =     0.00003959   -0.00008722    0.00000000
     atom   35 type  1   force =     0.00004561    0.00001086    0.00000000
     atom   36 type  1   force =    -0.00005856    0.00004331    0.00000000
     atom   37 type  1   force =     0.00000228    0.00001505    0.00000000
     atom   38 type  1   force =    -0.00003141   -0.00000939    0.00000000
     atom   39 type  1   force =    -0.00008718    0.00000656    0.00000000
     atom   40 type  1   force =     0.00005232    0.00010401    0.00000000
     atom   41 type  1   force =     0.00006730   -0.00003338    0.00000000
     atom   42 type  1   force =    -0.00000607    0.00000213    0.00000000
     atom   43 type  1   force =    -0.00006815    0.00000488    0.00000000
     atom   44 type  1   force =    -0.00009176    0.00004187    0.00000000
     atom   45 type  1   force =    -0.00006448   -0.00005467    0.00000000
     atom   46 type  1   force =    -0.00001790   -0.00002686    0.00000000
     atom   47 type  1   force =    -0.00003592    0.00005156    0.00000000
     atom   48 type  1   force =     0.00006047   -0.00000660    0.00000000
     atom   49 type  1   force =     0.00003746   -0.00006765    0.00000000
     atom   50 type  2   force =     0.00007535    0.00003713    0.00000000
     atom   51 type  2   force =     0.00006925    0.00002605    0.00000000
     atom   52 type  2   force =     0.00006211    0.00002232    0.00000000
     atom   53 type  2   force =     0.00003363   -0.00001432    0.00000000
     atom   54 type  2   force =     0.00006871   -0.00007079    0.00000000
     atom   55 type  2   force =     0.00006122   -0.00001924    0.00000000
     atom   56 type  2   force =     0.00005509    0.00005260    0.00000000
     atom   57 type  2   force =     0.00001752   -0.00002061    0.00000000
     atom   58 type  2   force =     0.00000650   -0.00009672    0.00000000
     atom   59 type  2   force =     0.00008353   -0.00004300    0.00000000
     atom   60 type  2   force =     0.00009622    0.00006119    0.00000000
[...]
     atom   84 type  2   force =    -0.00003051   -0.00008153    0.00000000
     atom   85 type  2   force =    -0.00010645    0.00000126    0.00000000
     atom   86 type  2   force =    -0.00008318    0.00005823    0.00000000
     atom   87 type  2   force =    -0.00007469   -0.00004265    0.00000000
     atom   88 type  2   force =    -0.00008951   -0.00006040    0.00000000
     atom   89 type  2   force =    -0.00010522   -0.00003688    0.00000000
     atom   90 type  2   force =     0.00003456    0.00000522    0.00000000
     atom   91 type  2   force =    -0.00001569   -0.00004245    0.00000000
     atom   92 type  2   force =     0.00005674    0.00004995    0.00000000
     atom   93 type  2   force =    -0.00001195    0.00011760    0.00000000
     atom   94 type  2   force =     0.00002471    0.00003098    0.00000000
     atom   95 type  2   force =     0.00002046   -0.00010990    0.00000000
     atom   96 type  2   force =    -0.00004549   -0.00005893    0.00000000
     atom   97 type  2   force =     0.00005762    0.00001798    0.00000000
     atom   98 type  2   force =     0.00006092    0.00002717    0.00000000

     Total force =     0.000762     Total SCF correction =     0.000110
     SCF correction compared to forces is large: reduce conv_thr to get better values

     Computing stress (Cartesian axis) and pressure

     negative rho (up, down):  4.795E-01 7.793E-03
          total   stress  (Ry/bohr**3)                   (kbar)     P=   -0.18
  -0.00000018   0.00000001   0.00000000         -0.03      0.00      0.00
   0.00000001  -0.00000017   0.00000000          0.00     -0.02      0.00
   0.00000000   0.00000000  -0.00000334          0.00      0.00     -0.49

     Writing output data file C2Cn.save/

     General routines

     Parallel routines

   This run was terminated on:  18:31:24   8Jun2021

   JOB DONE.