     Program PWSCF v.6.4.1 starts on 21Sep2021 at 17:58:35

     R & G space division:  proc/nbgrp/npool/nimage =      64
     Waiting for input...
     Reading input from standard input

     Current dimensions of program PWSCF are:
     Max number of different atomic species (ntypx) = 10
     Max number of k-points (npk) =  40000
     Max angular momentum in pseudopotentials (lmaxx) =  3

     IMPORTANT: XC functional enforced from input :
     Exchange-correlation      = HSE ( 1  4 12  4 0 0)
     EXX-fraction              =        0.25
     Any further DFT definition will be discarded
     Please, verify this is what you really want

               file N.pbe-n-kjpaw_psl.1.0.0.UPF: wavefunction(s)  2S renormalized
               file C.pbe-n-kjpaw_psl.1.0.0.UPF: wavefunction(s)  2S 2P renormalized
               file C.pbe-n-kjpaw_psl.1.0.0.UPF: wavefunction(s)  2S 2P renormalized
               file C.pbe-n-kjpaw_psl.1.0.0.UPF: wavefunction(s)  2S 2P renormalized
     EXX fraction changed:   0.32
     EXX Screening parameter changed:    0.0455000

     Parameters for DFT-D3 Dispersion Correction:
       Reference C6 values for interpolation:

         atom   Coordination number   C6
         B          0.000           214.36
         B          0.971           150.74
         B          1.944           106.23
         B          2.913            62.89
         B          4.586            56.06
         C1         0.000            98.23
         C1         0.987            86.49
         C1         1.998            58.72
         C1         2.999            51.56
         C1         3.984            36.41
         C2         0.000            98.23
         C2         0.987            86.49
         C2         1.998            58.72
         C2         2.999            51.56
         C2         3.984            36.41
         C3         0.000            98.23
         C3         0.987            86.49
         C3         1.998            58.72
         C3         2.999            51.56
         C3         3.984            36.41
         N          0.000            50.54
         N          0.994            44.25
         N          2.014            39.35
         N          2.990            31.16

       Values used:

         atom   Coordination number  R0_AB[au]  C6      C8
         B          3.325            3.039     62.90   2506.24
         B          3.317            3.039     62.90   2506.44
         B          3.317            3.039     62.90   2506.43
         B          3.325            3.039     62.90   2506.25
         B          3.327            3.039     62.90   2506.21
         B          3.324            3.039     62.90   2506.27
         B          3.326            3.039     62.90   2506.22
         B          3.325            3.039     62.90   2506.26
         B          3.323            3.039     62.90   2506.30
         B          3.303            3.039     62.91   2506.76
         B          3.322            3.039     62.90   2506.33
         B          3.329            3.039     62.90   2506.15
         B          3.325            3.039     62.90   2506.24
         B          3.324            3.039     62.90   2506.27
         B          3.325            3.039     62.90   2506.26
         B          3.327            3.039     62.90   2506.21
         B          3.297            3.039     62.91   2506.88
         B          3.297            3.039     62.91   2506.90
         B          3.336            3.039     62.89   2505.99
         B          3.329            3.039     62.90   2506.15
         B          3.327            3.039     62.90   2506.21
         B          3.323            3.039     62.90   2506.31
         B          3.319            3.039     62.90   2506.40
         B          3.314            3.039     62.90   2506.51
         C2         3.249            2.750     49.43   1429.56
         B          3.297            3.039     62.91   2506.90
         B          3.322            3.039     62.90   2506.33
         B          3.325            3.039     62.90   2506.25
         B          3.321            3.039     62.90   2506.36
         B          3.319            3.039     62.90   2506.39
         B          3.315            3.039     62.90   2506.50
         B          3.314            3.039     62.90   2506.51
         B          3.297            3.039     62.91   2506.88
         B          3.303            3.039     62.91   2506.76
         B          3.317            3.039     62.90   2506.43
         B          3.316            3.039     62.90   2506.45
         B          3.318            3.039     62.90   2506.42
         B          3.319            3.039     62.90   2506.39
         B          3.319            3.039     62.90   2506.40
         B          3.327            3.039     62.90   2506.21
         B          3.323            3.039     62.90   2506.30
         B          3.317            3.039     62.90   2506.44
         B          3.319            3.039     62.90   2506.40
         B          3.316            3.039     62.90   2506.45
         B          3.321            3.039     62.90   2506.36
         B          3.323            3.039     62.90   2506.31
         B          3.325            3.039     62.90   2506.26
         B          3.325            3.039     62.90   2506.26
         B          3.325            3.039     62.90   2506.24
         N          3.129            2.478     31.22    688.74
         N          3.128            2.478     31.22    688.75
         N          3.125            2.478     31.22    688.79
         N          3.128            2.478     31.22    688.75
         N          3.130            2.478     31.22    688.73
         N          3.129            2.478     31.22    688.75
         N          3.129            2.478     31.22    688.75
         N          3.129            2.478     31.22    688.75
         N          3.129            2.478     31.22    688.74
         N          3.124            2.478     31.22    688.79
         N          3.123            2.478     31.22    688.80
[...]
         N          3.125            2.478     31.22    688.79
         N          3.126            2.478     31.22    688.77
         N          3.126            2.478     31.22    688.77
         N          3.127            2.478     31.22    688.76
         N          3.127            2.478     31.22    688.76
         N          3.129            2.478     31.22    688.74
         N          3.129            2.478     31.22    688.74
         N          3.128            2.478     31.22    688.75
         N          3.129            2.478     31.22    688.74
         N          3.126            2.478     31.22    688.77
         N          3.127            2.478     31.22    688.77
         N          3.129            2.478     31.22    688.75
         N          3.130            2.478     31.22    688.74
         N          3.129            2.478     31.22    688.75
         N          3.129            2.478     31.22    688.74

         Molecular C6 ( Ry / a.u.^6 ) =    437698.51

     gamma-point specific algorithms are used
     Message from routine setup :
     BEWARE: nonlinear core correction is not consistent with hybrid XC

     EXX: grid of k+q points same as grid of k-points

     bravais-lattice index     =            0
     lattice parameter (alat)  =      33.2346  a.u.
     unit-cell volume          =   36184.4017 (a.u.)^3
     number of atoms/cell      =           98
     number of atomic types    =            5
     number of electrons       =       391.00
     number of Kohn-Sham states=          245
     kinetic-energy cutoff     =      25.0000  Ry
     charge density cutoff     =     100.0000  Ry
     cutoff for Fock operator  =     100.0000  Ry
     convergence threshold     =      1.0E-06
     mixing beta               =       0.7000
     number of iterations used =            8  plain     mixing
     Exchange-correlation      = HSE ( 1  4 12  4 0 0)
     EXX-fraction              =        0.32

     celldm(1)=  33.234611  celldm(2)=   0.000000  celldm(3)=   0.000000
     celldm(4)=   0.000000  celldm(5)=   0.000000  celldm(6)=   0.000000

     crystal axes: (cart. coord. in units of alat)
               a(1) = (   1.000640  -0.000349   0.000000 )
               a(2) = (  -0.500622   0.866405   0.000000 )
               a(3) = (   0.000000   0.000000   1.137204 )

     reciprocal axes: (cart. coord. in units 2 pi/alat)
               b(1) = (  0.999562  0.577562  0.000000 )
               b(2) = (  0.000402  1.154427  0.000000 )
               b(3) = (  0.000000  0.000000  0.879350 )

     PseudoPot. # 1 for B  read from file:
     ./pseudo/B.pbe-n-kjpaw_psl.1.0.0.UPF
     MD5 check sum: 8c825a5969375aca5c2c6ad5945b3059
     Pseudo is Projector augmented-wave + core cor, Zval =  3.0
     Generated using "atomic" code by A. Dal Corso v.6.3
     Shape of augmentation charge: PSQ
     Using radial grid of 1059 points,  4 beta functions with:
                l(1) =   0
                l(2) =   0
                l(3) =   1
                l(4) =   1
     Q(r) pseudized with 0 coefficients

     PseudoPot. # 2 for N  read from file:
     ./pseudo/N.pbe-n-kjpaw_psl.1.0.0.UPF
     MD5 check sum: 14c48229446f9f2d411169a3abcbc3fa
     Pseudo is Projector augmented-wave + core cor, Zval =  5.0
     Generated using "atomic" code by A. Dal Corso v.6.3
     Shape of augmentation charge: PSQ
     Using radial grid of 1085 points,  4 beta functions with:
                l(1) =   0
                l(2) =   0
                l(3) =   1
                l(4) =   1
     Q(r) pseudized with 0 coefficients

     PseudoPot. # 3 for C  read from file:
     ./pseudo/C.pbe-n-kjpaw_psl.1.0.0.UPF
     MD5 check sum: 5f16ad9a65e90284d1d834d4ab3b0f7d
     Pseudo is Projector augmented-wave + core cor, Zval =  4.0
     Generated using "atomic" code by A. Dal Corso v.6.3
     Shape of augmentation charge: PSQ
     Using radial grid of 1073 points,  4 beta functions with:
                l(1) =   0
                l(2) =   0
                l(3) =   1
                l(4) =   1
     Q(r) pseudized with 0 coefficients

[...]

     PseudoPot. # 5 for C  read from file:
     ./pseudo/C.pbe-n-kjpaw_psl.1.0.0.UPF
     MD5 check sum: 5f16ad9a65e90284d1d834d4ab3b0f7d
     Pseudo is Projector augmented-wave + core cor, Zval =  4.0
     Generated using "atomic" code by A. Dal Corso v.6.3
     Shape of augmentation charge: PSQ
     Using radial grid of 1073 points,  4 beta functions with:
                l(1) =   0
                l(2) =   0
                l(3) =   1
                l(4) =   1
     Q(r) pseudized with 0 coefficients

     atomic species   valence    mass     pseudopotential
        B              3.00    10.00000     B ( 1.00)
        N              5.00    14.00000     N ( 1.00)
        C1             4.00    12.00000     C ( 1.00)
        C2             4.00    12.00000     C ( 1.00)
        C3             4.00    12.00000     C ( 1.00)

     Starting magnetic structure
     atomic species   magnetization
        B            0.000
        N            0.000
        C1           1.000
[...]
     atom:    2    charge:    0.8518    magn:    0.0003    constr:    0.0000
     atom:    3    charge:    0.8520    magn:    0.0008    constr:    0.0000
     atom:    4    charge:    0.8545    magn:   -0.0000    constr:    0.0000
     atom:    5    charge:    0.8569    magn:    0.0000    constr:    0.0000
     atom:    6    charge:    0.8564    magn:    0.0001    constr:    0.0000
     atom:    7    charge:    0.8567    magn:   -0.0000    constr:    0.0000
     atom:    8    charge:    0.8534    magn:    0.0001    constr:    0.0000
     atom:    9    charge:    0.8557    magn:   -0.0003    constr:    0.0000
     atom:   10    charge:    0.8416    magn:    0.0031    constr:    0.0000
     atom:   11    charge:    0.8531    magn:    0.0005    constr:    0.0000
     atom:   12    charge:    0.8561    magn:    0.0001    constr:    0.0000
     atom:   13    charge:    0.8532    magn:   -0.0000    constr:    0.0000
     atom:   14    charge:    0.8564    magn:    0.0001    constr:    0.0000
     atom:   15    charge:    0.8556    magn:   -0.0001    constr:    0.0000
     atom:   16    charge:    0.8567    magn:    0.0001    constr:    0.0000
     atom:   17    charge:    0.8658    magn:    0.0025    constr:    0.0000
     atom:   18    charge:    0.8561    magn:    0.0076    constr:    0.0000
     atom:   19    charge:    0.8658    magn:   -0.0004    constr:    0.0000
     atom:   20    charge:    0.8561    magn:    0.0001    constr:    0.0000
     atom:   21    charge:    0.8569    magn:    0.0000    constr:    0.0000
     atom:   22    charge:    0.8521    magn:    0.0000    constr:    0.0000
     atom:   23    charge:    0.8508    magn:    0.0003    constr:    0.0000
     atom:   24    charge:    0.8492    magn:   -0.0007    constr:    0.0000
     atom:   25    charge:    1.6241    magn:   -0.0251    constr:    0.0000
     atom:   26    charge:    0.8561    magn:    0.0077    constr:    0.0000
     atom:   27    charge:    0.8531    magn:    0.0005    constr:    0.0000
     atom:   28    charge:    0.8545    magn:   -0.0000    constr:    0.0000
     atom:   29    charge:    0.8518    magn:    0.0001    constr:    0.0000
     atom:   30    charge:    0.8526    magn:    0.0000    constr:    0.0000
     atom:   31    charge:    0.8529    magn:   -0.0003    constr:    0.0000
     atom:   32    charge:    0.8491    magn:   -0.0007    constr:    0.0000
     atom:   33    charge:    0.8657    magn:    0.0026    constr:    0.0000
     atom:   34    charge:    0.8415    magn:    0.0031    constr:    0.0000
     atom:   35    charge:    0.8520    magn:    0.0008    constr:    0.0000
     atom:   36    charge:    0.8505    magn:    0.0003    constr:    0.0000
     atom:   37    charge:    0.8524    magn:   -0.0000    constr:    0.0000
     atom:   38    charge:    0.8526    magn:    0.0000    constr:    0.0000
     atom:   39    charge:    0.8508    magn:    0.0003    constr:    0.0000
     atom:   40    charge:    0.8567    magn:    0.0001    constr:    0.0000
     atom:   41    charge:    0.8557    magn:   -0.0003    constr:    0.0000
     atom:   42    charge:    0.8518    magn:    0.0003    constr:    0.0000
     atom:   43    charge:    0.8495    magn:   -0.0000    constr:    0.0000
     atom:   44    charge:    0.8505    magn:    0.0003    constr:    0.0000
     atom:   45    charge:    0.8519    magn:    0.0001    constr:    0.0000
     atom:   46    charge:    0.8521    magn:    0.0000    constr:    0.0000
     atom:   47    charge:    0.8556    magn:   -0.0001    constr:    0.0000
     atom:   48    charge:    0.8534    magn:    0.0001    constr:    0.0000
     atom:   49    charge:    0.8567    magn:   -0.0000    constr:    0.0000
     atom:   50    charge:    2.7560    magn:    0.0005    constr:    0.0000
     atom:   51    charge:    2.7492    magn:   -0.0002    constr:    0.0000
     atom:   52    charge:    2.7457    magn:    0.0030    constr:    0.0000
     atom:   53    charge:    2.7510    magn:    0.0000    constr:    0.0000
     atom:   54    charge:    2.7532    magn:    0.0001    constr:    0.0000
     atom:   55    charge:    2.7524    magn:   -0.0000    constr:    0.0000
     atom:   56    charge:    2.7474    magn:   -0.0001    constr:    0.0000
     atom:   57    charge:    2.7500    magn:    0.0003    constr:    0.0000
     atom:   58    charge:    2.7475    magn:    0.0041    constr:    0.0000
     atom:   59    charge:    2.7464    magn:    0.0066    constr:    0.0000
     atom:   60    charge:    2.7409    magn:    0.0127    constr:    0.0000
[...]
     atom:   84    charge:    2.7457    magn:    0.0030    constr:    0.0000
     atom:   85    charge:    2.7481    magn:    0.0004    constr:    0.0000
     atom:   86    charge:    2.7429    magn:   -0.0001    constr:    0.0000
     atom:   87    charge:    2.7465    magn:   -0.0000    constr:    0.0000
     atom:   88    charge:    2.7473    magn:    0.0002    constr:    0.0000
     atom:   89    charge:    2.7498    magn:    0.0003    constr:    0.0000
     atom:   90    charge:    2.7475    magn:    0.0041    constr:    0.0000
     atom:   91    charge:    2.7492    magn:   -0.0002    constr:    0.0000
     atom:   92    charge:    2.7567    magn:   -0.0001    constr:    0.0000
     atom:   93    charge:    2.7481    magn:    0.0004    constr:    0.0000
     atom:   94    charge:    2.7550    magn:    0.0000    constr:    0.0000
     atom:   95    charge:    2.7498    magn:   -0.0000    constr:    0.0000
     atom:   96    charge:    2.7585    magn:    0.0000    constr:    0.0000
     atom:   97    charge:    2.7500    magn:    0.0003    constr:    0.0000
     atom:   98    charge:    2.7561    magn:    0.0005    constr:    0.0000

     End of self-consistent calculation

 ------ SPIN UP ------------

          k = 0.0000 0.0000 0.0000 ( 38132 PWs)   bands (ev):

[...]

 ------ SPIN DOWN ----------

[...]

     highest occupied, lowest unoccupied level (ev):    -3.6207   -2.9642

!    total energy              =   -1937.44971441 Ry
     Harris-Foulkes estimate   =   -1937.44971469 Ry
     estimated scf accuracy    <       0.00000068 Ry

[...]

     convergence has been achieved in  12 iterations

     Using ACE for calculation of exact exchange

[...]

     EXX: now go back to refine exchange calculation

[...]

     total energy              =   -1712.97673300 Ry
     Harris-Foulkes estimate   =   -1712.97673086 Ry
     est. exchange err (dexx)  =       0.04316638 Ry
     - averaged Fock potential =     193.65683528 Ry
     + Fock energy (ACE)       =     -96.91969041 Ry

[...]

     total energy              =   -1712.98526928 Ry
     Harris-Foulkes estimate   =   -1712.98527021 Ry
     estimated scf accuracy    <       0.00000173 Ry

[...]

     iteration #  1     ecut=    25.00 Ry     beta= 0.70
     CG style diagonalization
     ethr =  4.43E-10,  avg # of iterations =  3.9

[...]

     total energy              =   -1712.98528993 Ry
     Harris-Foulkes estimate   =   -1712.98528674 Ry
     est. exchange err (dexx)  =       0.00000163 Ry
     - averaged Fock potential =     193.97695286 Ry
     + Fock energy (ACE)       =     -96.98939242 Ry

     EXX: now go back to refine exchange calculation

     Self-consistent Calculation

     iteration #  1     ecut=    25.00 Ry     beta= 0.70
     CG style diagonalization
     c_bands:  1 eigenvalues not converged
     ethr =  4.43E-10,  avg # of iterations =  3.5

     negative rho (up, down):  3.691E+00 5.025E-03

     Magnetic moment per site:
     atom:    1    charge:    0.8268    magn:   -0.0000    constr:    0.0000
     atom:    2    charge:    0.8218    magn:    0.0002    constr:    0.0000
     atom:    3    charge:    0.8220    magn:    0.0004    constr:    0.0000
     atom:    4    charge:    0.8247    magn:   -0.0000    constr:    0.0000
     atom:    5    charge:    0.8271    magn:    0.0000    constr:    0.0000
     atom:    6    charge:    0.8265    magn:    0.0000    constr:    0.0000
     atom:    7    charge:    0.8268    magn:   -0.0000    constr:    0.0000
     atom:    8    charge:    0.8232    magn:    0.0000    constr:    0.0000
     atom:    9    charge:    0.8258    magn:   -0.0003    constr:    0.0000
     atom:   10    charge:    0.8113    magn:    0.0022    constr:    0.0000
     atom:   11    charge:    0.8231    magn:    0.0003    constr:    0.0000
     atom:   12    charge:    0.8263    magn:    0.0000    constr:    0.0000
     atom:   13    charge:    0.8232    magn:   -0.0000    constr:    0.0000
     atom:   14    charge:    0.8265    magn:    0.0000    constr:    0.0000
     atom:   15    charge:    0.8256    magn:   -0.0001    constr:    0.0000
     atom:   16    charge:    0.8268    magn:   -0.0001    constr:    0.0000
     atom:   17    charge:    0.8378    magn:    0.0015    constr:    0.0000
     atom:   18    charge:    0.8279    magn:    0.0059    constr:    0.0000
     atom:   19    charge:    0.8361    magn:   -0.0004    constr:    0.0000
     atom:   20    charge:    0.8263    magn:    0.0000    constr:    0.0000
     atom:   21    charge:    0.8271    magn:    0.0000    constr:    0.0000
     atom:   22    charge:    0.8220    magn:    0.0000    constr:    0.0000
     atom:   23    charge:    0.8208    magn:    0.0001    constr:    0.0000
     atom:   24    charge:    0.8190    magn:   -0.0015    constr:    0.0000
     atom:   25    charge:    1.5831    magn:   -0.0532    constr:    0.0000
     atom:   26    charge:    0.8279    magn:    0.0059    constr:    0.0000
     atom:   27    charge:    0.8231    magn:    0.0003    constr:    0.0000
     atom:   28    charge:    0.8247    magn:   -0.0000    constr:    0.0000
     atom:   29    charge:    0.8217    magn:    0.0000    constr:    0.0000
     atom:   30    charge:    0.8226    magn:   -0.0000    constr:    0.0000
     atom:   31    charge:    0.8228    magn:   -0.0004    constr:    0.0000
     atom:   32    charge:    0.8190    magn:   -0.0015    constr:    0.0000
     atom:   33    charge:    0.8378    magn:    0.0015    constr:    0.0000
     atom:   34    charge:    0.8113    magn:    0.0022    constr:    0.0000
     atom:   35    charge:    0.8220    magn:    0.0004    constr:    0.0000
     atom:   36    charge:    0.8205    magn:    0.0001    constr:    0.0000
     atom:   37    charge:    0.8224    magn:   -0.0000    constr:    0.0000
     atom:   38    charge:    0.8226    magn:   -0.0000    constr:    0.0000
     atom:   39    charge:    0.8208    magn:    0.0001    constr:    0.0000
     atom:   40    charge:    0.8268    magn:   -0.0001    constr:    0.0000
     atom:   41    charge:    0.8258    magn:   -0.0003    constr:    0.0000
     atom:   42    charge:    0.8218    magn:    0.0002    constr:    0.0000
     atom:   43    charge:    0.8192    magn:   -0.0000    constr:    0.0000
     atom:   44    charge:    0.8205    magn:    0.0001    constr:    0.0000
     atom:   45    charge:    0.8217    magn:    0.0000    constr:    0.0000
     atom:   46    charge:    0.8220    magn:    0.0000    constr:    0.0000
     atom:   47    charge:    0.8256    magn:   -0.0001    constr:    0.0000
     atom:   48    charge:    0.8232    magn:    0.0000    constr:    0.0000
     atom:   49    charge:    0.8268    magn:   -0.0000    constr:    0.0000
     atom:   50    charge:    2.7320    magn:    0.0003    constr:    0.0000
     atom:   51    charge:    2.7251    magn:   -0.0001    constr:    0.0000
     atom:   52    charge:    2.7215    magn:    0.0017    constr:    0.0000
     atom:   53    charge:    2.7270    magn:    0.0000    constr:    0.0000
     atom:   54    charge:    2.7291    magn:    0.0001    constr:    0.0000
     atom:   55    charge:    2.7283    magn:    0.0000    constr:    0.0000
     atom:   56    charge:    2.7232    magn:   -0.0000    constr:    0.0000
     atom:   57    charge:    2.7258    magn:    0.0002    constr:    0.0000
     atom:   58    charge:    2.7233    magn:    0.0028    constr:    0.0000
     atom:   59    charge:    2.7222    magn:    0.0065    constr:    0.0000
     atom:   60    charge:    2.7166    magn:    0.0104    constr:    0.0000
[...]
     atom:   84    charge:    2.7215    magn:    0.0018    constr:    0.0000
     atom:   85    charge:    2.7239    magn:    0.0002    constr:    0.0000
     atom:   86    charge:    2.7187    magn:   -0.0001    constr:    0.0000
     atom:   87    charge:    2.7223    magn:   -0.0000    constr:    0.0000
     atom:   88    charge:    2.7230    magn:    0.0001    constr:    0.0000
     atom:   89    charge:    2.7258    magn:    0.0003    constr:    0.0000
     atom:   90    charge:    2.7233    magn:    0.0028    constr:    0.0000
     atom:   91    charge:    2.7251    magn:   -0.0001    constr:    0.0000
     atom:   92    charge:    2.7326    magn:   -0.0000    constr:    0.0000
     atom:   93    charge:    2.7239    magn:    0.0002    constr:    0.0000
     atom:   94    charge:    2.7308    magn:    0.0000    constr:    0.0000
     atom:   95    charge:    2.7257    magn:   -0.0000    constr:    0.0000
     atom:   96    charge:    2.7344    magn:    0.0000    constr:    0.0000
     atom:   97    charge:    2.7258    magn:    0.0002    constr:    0.0000
     atom:   98    charge:    2.7320    magn:    0.0003    constr:    0.0000

     End of self-consistent calculation

 ------ SPIN UP ------------

[...]

 ------ SPIN DOWN ----------

          k = 0.0000 0.0000 0.0000 ( 38132 PWs)   bands (ev):

   -25.2838 -25.0556 -24.8616 -24.8545 -24.8354 -24.7742 -24.7200 -24.2693
   -24.0520 -24.0358 -24.0306 -23.9421 -23.9294 -23.7970 -23.6602 -23.6508
   -23.6396 -23.4829 -23.4709 -22.8853 -22.6837 -22.6827 -22.6774 -22.6660
   -22.6633 -22.6556 -22.6551 -22.6204 -22.6116 -22.4356 -22.4303 -22.2854
   -22.2304 -22.2303 -22.2075 -22.0132 -22.0083 -21.7686 -21.7581 -21.7467
   -21.7361 -21.6664 -21.6491 -21.5895 -21.5658 -21.5636 -21.5517 -19.9206
   -17.4955 -15.5160 -15.1488 -15.1423 -15.1323 -15.0931 -15.0863 -15.0085
   -14.9231 -14.8874 -14.8874 -14.8186 -14.7701 -14.4913 -14.4130 -14.4036
   -14.3691 -14.3060 -14.2861 -13.7896 -13.6653 -13.6448 -13.6266 -13.6172
   -13.6075 -13.5997 -13.5978 -13.5549 -13.5281 -13.3051 -13.2461 -13.0459
   -12.8552 -12.8423 -12.8115 -12.8032 -12.6359 -12.1532 -12.1216 -12.0846
   -11.9987 -11.9462 -11.8784 -11.4388 -11.3626 -11.3366 -11.3090 -11.3043
   -11.2911 -11.2402 -11.0383 -10.9100 -10.9023 -10.8703 -10.8676 -10.8548
   -10.8515 -10.8394 -10.8238 -10.7966 -10.7929 -10.7846 -10.7844 -10.7810
   -10.7377 -10.7314 -10.7168 -10.7127 -10.6438 -10.6321 -10.6103 -10.5275
   -10.4247 -10.3959 -10.1315 -10.1237 -10.1214 -10.0603 -10.0207  -9.7542
    -9.6850  -9.5755  -9.5628  -9.5530  -9.4527  -9.4320  -9.3867  -9.3321
    -9.3286  -9.2948  -9.2782  -9.2704  -9.2476  -9.2381  -9.1967  -9.1362
    -9.1010  -9.0371  -9.0109  -9.0068  -8.9951  -8.8217  -8.8206  -8.8172
    -8.7922  -8.7600  -8.7219  -8.5509  -8.3878  -8.2614  -7.8916  -7.8662
    -7.8566  -7.8021  -7.7461  -7.5530  -7.5456  -7.5449  -7.5347  -7.5317
    -7.5214  -7.5072  -7.4723  -7.4722  -7.4632  -7.3329  -7.2620  -7.2103
    -6.9230  -6.8514  -6.8446  -6.8281  -6.6803  -6.6784  -6.6324  -6.5515
    -6.1040  -6.0858  -6.0689  -6.0639  -5.9479  -5.9438  -5.8286  -5.7876
    -5.7829  -5.7742  -5.2291  -2.1660  -0.3382  -0.0081   0.2370   0.3038
     0.3051   0.3074   0.3128   0.3168   0.3376   0.6240   0.6289   0.6292
     0.6311   0.6400   0.6422   0.8832   0.8859   0.8875   0.8911   0.8938
     0.9157   1.0538   1.3191   1.6029   1.6042   1.6062   1.6093   1.6136
     1.6185   1.6785   1.6859   1.6979   1.6983   1.7273   1.7314   1.8042
     1.9121   1.9147   1.9162   1.9163   1.9187   1.9198   1.9279   1.9304
     1.9417   1.9429   2.0418   2.2496   2.2647

     highest occupied, lowest unoccupied level (ev):    -4.7622   -2.1660

!    total energy              =   -1712.98529073 Ry
     Harris-Foulkes estimate   =   -1712.98529094 Ry
     estimated scf accuracy    <       0.00000031 Ry

     total magnetization       =     1.00 Bohr mag/cell
     absolute magnetization    =     1.44 Bohr mag/cell

     convergence has been achieved in   1 iterations

     Using ACE for calculation of exact exchange

!!   total energy              =   -1712.98529111 Ry
     Harris-Foulkes estimate   =   -1712.98529133 Ry
     est. exchange err (dexx)  =       0.00000038 Ry
     - averaged Fock potential =     193.97795998 Ry
     + Fock energy (ACE)       =     -96.98856795 Ry

     EXX self-consistency reached

     Writing output data file C2Cn.save/

     General routines

     Parallel routines

     EXX routines

     EXX+US  routines

     EXX+PAW routines

   This run was terminated on:   2:35:11  22Sep2021

   JOB DONE.