     Program PWSCF v.6.4.1 starts on 21Sep2021 at  6: 3:10

     R & G space division:  proc/nbgrp/npool/nimage =      64
     Waiting for input...
     Reading input from standard input

     Current dimensions of program PWSCF are:
     Max number of different atomic species (ntypx) = 10
     Max number of k-points (npk) =  40000
     Max angular momentum in pseudopotentials (lmaxx) =  3

     IMPORTANT: XC functional enforced from input :
     Exchange-correlation      = HSE ( 1  4 12  4 0 0)
     EXX-fraction              =        0.25
     Any further DFT definition will be discarded
     Please, verify this is what you really want

               file N.pbe-n-kjpaw_psl.1.0.0.UPF: wavefunction(s)  2S renormalized
               file C.pbe-n-kjpaw_psl.1.0.0.UPF: wavefunction(s)  2S 2P renormalized
               file C.pbe-n-kjpaw_psl.1.0.0.UPF: wavefunction(s)  2S 2P renormalized
               file C.pbe-n-kjpaw_psl.1.0.0.UPF: wavefunction(s)  2S 2P renormalized
     EXX fraction changed:   0.32
     EXX Screening parameter changed:    0.0455000

     Parameters for DFT-D3 Dispersion Correction:
       Reference C6 values for interpolation:

         atom   Coordination number   C6
         B          0.000           214.36
         B          0.971           150.74
         B          1.944           106.23
         B          2.913            62.89
         B          4.586            56.06
         C1         0.000            98.23
         C1         0.987            86.49
         C1         1.998            58.72
         C1         2.999            51.56
         C1         3.984            36.41
         C2         0.000            98.23
         C2         0.987            86.49
         C2         1.998            58.72
         C2         2.999            51.56
         C2         3.984            36.41
         C3         0.000            98.23
         C3         0.987            86.49
         C3         1.998            58.72
         C3         2.999            51.56
         C3         3.984            36.41
         N          0.000            50.54
         N          0.994            44.25
         N          2.014            39.35
         N          2.990            31.16

       Values used:

         atom   Coordination number  R0_AB[au]  C6      C8
         B          3.325            3.039     62.90   2506.24
         B          3.317            3.039     62.90   2506.44
         B          3.317            3.039     62.90   2506.43
         B          3.325            3.039     62.90   2506.25
         B          3.327            3.039     62.90   2506.21
         B          3.324            3.039     62.90   2506.27
         B          3.326            3.039     62.90   2506.22
         B          3.325            3.039     62.90   2506.26
         B          3.323            3.039     62.90   2506.30
         B          3.303            3.039     62.91   2506.76
         B          3.322            3.039     62.90   2506.33
         B          3.329            3.039     62.90   2506.15
         B          3.325            3.039     62.90   2506.24
         B          3.324            3.039     62.90   2506.27
         B          3.325            3.039     62.90   2506.26
         B          3.327            3.039     62.90   2506.21
         B          3.297            3.039     62.91   2506.88
         B          3.297            3.039     62.91   2506.90
         B          3.336            3.039     62.89   2505.99
         B          3.329            3.039     62.90   2506.15
         B          3.327            3.039     62.90   2506.21
         B          3.323            3.039     62.90   2506.31
         B          3.319            3.039     62.90   2506.40
         B          3.314            3.039     62.90   2506.51
         C2         3.249            2.750     49.43   1429.56
         B          3.297            3.039     62.91   2506.90
         B          3.322            3.039     62.90   2506.33
         B          3.325            3.039     62.90   2506.25
         B          3.321            3.039     62.90   2506.36
         B          3.319            3.039     62.90   2506.39
         B          3.315            3.039     62.90   2506.50
         B          3.314            3.039     62.90   2506.51
         B          3.297            3.039     62.91   2506.88
         B          3.303            3.039     62.91   2506.76
         B          3.317            3.039     62.90   2506.43
         B          3.316            3.039     62.90   2506.45
         B          3.318            3.039     62.90   2506.42
         B          3.319            3.039     62.90   2506.39
         B          3.319            3.039     62.90   2506.40
         B          3.327            3.039     62.90   2506.21
         B          3.323            3.039     62.90   2506.30
         B          3.317            3.039     62.90   2506.44
         B          3.319            3.039     62.90   2506.40
         B          3.316            3.039     62.90   2506.45
         B          3.321            3.039     62.90   2506.36
         B          3.323            3.039     62.90   2506.31
         B          3.325            3.039     62.90   2506.26
         B          3.325            3.039     62.90   2506.26
         B          3.325            3.039     62.90   2506.24
         N          3.129            2.478     31.22    688.74
         N          3.128            2.478     31.22    688.75
         N          3.125            2.478     31.22    688.79
         N          3.128            2.478     31.22    688.75
         N          3.130            2.478     31.22    688.73
         N          3.129            2.478     31.22    688.75
         N          3.129            2.478     31.22    688.75
         N          3.129            2.478     31.22    688.75
         N          3.129            2.478     31.22    688.74
         N          3.124            2.478     31.22    688.79
         N          3.123            2.478     31.22    688.80
[...]
         N          3.125            2.478     31.22    688.79
         N          3.126            2.478     31.22    688.77
         N          3.126            2.478     31.22    688.77
         N          3.127            2.478     31.22    688.76
         N          3.127            2.478     31.22    688.76
         N          3.129            2.478     31.22    688.74
         N          3.129            2.478     31.22    688.74
         N          3.128            2.478     31.22    688.75
         N          3.129            2.478     31.22    688.74
         N          3.126            2.478     31.22    688.77
         N          3.127            2.478     31.22    688.77
         N          3.129            2.478     31.22    688.75
         N          3.130            2.478     31.22    688.74
         N          3.129            2.478     31.22    688.75
         N          3.129            2.478     31.22    688.74

         Molecular C6 ( Ry / a.u.^6 ) =    437698.51

     gamma-point specific algorithms are used
     Message from routine setup :
     BEWARE: nonlinear core correction is not consistent with hybrid XC

     EXX: grid of k+q points same as grid of k-points

     bravais-lattice index     =            0
     lattice parameter (alat)  =      33.2346  a.u.
     unit-cell volume          =   36184.4017 (a.u.)^3
     number of atoms/cell      =           98
     number of atomic types    =            5
     number of electrons       =       391.00
     number of Kohn-Sham states=          245
     kinetic-energy cutoff     =      30.0000  Ry
     charge density cutoff     =     120.0000  Ry
     cutoff for Fock operator  =     120.0000  Ry
     convergence threshold     =      1.0E-06
     mixing beta               =       0.7000
     number of iterations used =            8  plain     mixing
     Exchange-correlation      = HSE ( 1  4 12  4 0 0)
     EXX-fraction              =        0.32

     celldm(1)=  33.234611  celldm(2)=   0.000000  celldm(3)=   0.000000
     celldm(4)=   0.000000  celldm(5)=   0.000000  celldm(6)=   0.000000

     crystal axes: (cart. coord. in units of alat)
               a(1) = (   1.000640  -0.000349   0.000000 )
               a(2) = (  -0.500622   0.866405   0.000000 )
               a(3) = (   0.000000   0.000000   1.137204 )

     reciprocal axes: (cart. coord. in units 2 pi/alat)
               b(1) = (  0.999562  0.577562  0.000000 )
               b(2) = (  0.000402  1.154427  0.000000 )
               b(3) = (  0.000000  0.000000  0.879350 )

     PseudoPot. # 1 for B  read from file:
     ./pseudo/B.pbe-n-kjpaw_psl.1.0.0.UPF
     MD5 check sum: 8c825a5969375aca5c2c6ad5945b3059
     Pseudo is Projector augmented-wave + core cor, Zval =  3.0
     Generated using "atomic" code by A. Dal Corso v.6.3
     Shape of augmentation charge: PSQ
     Using radial grid of 1059 points,  4 beta functions with:
                l(1) =   0
                l(2) =   0
                l(3) =   1
                l(4) =   1
     Q(r) pseudized with 0 coefficients

     PseudoPot. # 2 for N  read from file:
     ./pseudo/N.pbe-n-kjpaw_psl.1.0.0.UPF
     MD5 check sum: 14c48229446f9f2d411169a3abcbc3fa
     Pseudo is Projector augmented-wave + core cor, Zval =  5.0
     Generated using "atomic" code by A. Dal Corso v.6.3
     Shape of augmentation charge: PSQ
     Using radial grid of 1085 points,  4 beta functions with:
                l(1) =   0
                l(2) =   0
                l(3) =   1
                l(4) =   1
     Q(r) pseudized with 0 coefficients

     PseudoPot. # 3 for C  read from file:
     ./pseudo/C.pbe-n-kjpaw_psl.1.0.0.UPF
     MD5 check sum: 5f16ad9a65e90284d1d834d4ab3b0f7d
     Pseudo is Projector augmented-wave + core cor, Zval =  4.0
     Generated using "atomic" code by A. Dal Corso v.6.3
     Shape of augmentation charge: PSQ
     Using radial grid of 1073 points,  4 beta functions with:
                l(1) =   0
                l(2) =   0
                l(3) =   1
                l(4) =   1
     Q(r) pseudized with 0 coefficients

[...]

     PseudoPot. # 5 for C  read from file:
     ./pseudo/C.pbe-n-kjpaw_psl.1.0.0.UPF
     MD5 check sum: 5f16ad9a65e90284d1d834d4ab3b0f7d
     Pseudo is Projector augmented-wave + core cor, Zval =  4.0
     Generated using "atomic" code by A. Dal Corso v.6.3
     Shape of augmentation charge: PSQ
     Using radial grid of 1073 points,  4 beta functions with:
                l(1) =   0
                l(2) =   0
                l(3) =   1
                l(4) =   1
     Q(r) pseudized with 0 coefficients

     atomic species   valence    mass     pseudopotential
        B              3.00    10.00000     B ( 1.00)
        N              5.00    14.00000     N ( 1.00)
        C1             4.00    12.00000     C ( 1.00)
        C2             4.00    12.00000     C ( 1.00)
        C3             4.00    12.00000     C ( 1.00)

     Starting magnetic structure
     atomic species   magnetization
        B            0.000
        N            0.000
        C1           1.000
[...]
     atom:    2    charge:    0.8461    magn:    0.0003    constr:    0.0000
     atom:    3    charge:    0.8457    magn:    0.0008    constr:    0.0000
     atom:    4    charge:    0.8495    magn:   -0.0000    constr:    0.0000
     atom:    5    charge:    0.8509    magn:    0.0000    constr:    0.0000
     atom:    6    charge:    0.8504    magn:    0.0001    constr:    0.0000
     atom:    7    charge:    0.8515    magn:   -0.0000    constr:    0.0000
     atom:    8    charge:    0.8501    magn:    0.0001    constr:    0.0000
     atom:    9    charge:    0.8505    magn:   -0.0003    constr:    0.0000
     atom:   10    charge:    0.8383    magn:    0.0030    constr:    0.0000
     atom:   11    charge:    0.8481    magn:    0.0005    constr:    0.0000
     atom:   12    charge:    0.8521    magn:    0.0001    constr:    0.0000
     atom:   13    charge:    0.8505    magn:   -0.0000    constr:    0.0000
     atom:   14    charge:    0.8504    magn:    0.0001    constr:    0.0000
     atom:   15    charge:    0.8507    magn:   -0.0001    constr:    0.0000
     atom:   16    charge:    0.8541    magn:    0.0001    constr:    0.0000
     atom:   17    charge:    0.8610    magn:    0.0025    constr:    0.0000
     atom:   18    charge:    0.8506    magn:    0.0075    constr:    0.0000
     atom:   19    charge:    0.8611    magn:   -0.0004    constr:    0.0000
     atom:   20    charge:    0.8521    magn:    0.0001    constr:    0.0000
     atom:   21    charge:    0.8509    magn:    0.0000    constr:    0.0000
     atom:   22    charge:    0.8482    magn:    0.0000    constr:    0.0000
     atom:   23    charge:    0.8441    magn:    0.0003    constr:    0.0000
     atom:   24    charge:    0.8448    magn:   -0.0007    constr:    0.0000
     atom:   25    charge:    1.6289    magn:   -0.0260    constr:    0.0000
     atom:   26    charge:    0.8506    magn:    0.0076    constr:    0.0000
     atom:   27    charge:    0.8480    magn:    0.0005    constr:    0.0000
     atom:   28    charge:    0.8495    magn:   -0.0000    constr:    0.0000
     atom:   29    charge:    0.8477    magn:    0.0001    constr:    0.0000
     atom:   30    charge:    0.8474    magn:    0.0000    constr:    0.0000
     atom:   31    charge:    0.8476    magn:   -0.0003    constr:    0.0000
     atom:   32    charge:    0.8447    magn:   -0.0007    constr:    0.0000
     atom:   33    charge:    0.8609    magn:    0.0026    constr:    0.0000
     atom:   34    charge:    0.8383    magn:    0.0030    constr:    0.0000
     atom:   35    charge:    0.8457    magn:    0.0008    constr:    0.0000
     atom:   36    charge:    0.8470    magn:    0.0003    constr:    0.0000
     atom:   37    charge:    0.8463    magn:   -0.0000    constr:    0.0000
     atom:   38    charge:    0.8474    magn:    0.0000    constr:    0.0000
     atom:   39    charge:    0.8441    magn:    0.0003    constr:    0.0000
     atom:   40    charge:    0.8541    magn:    0.0001    constr:    0.0000
     atom:   41    charge:    0.8504    magn:   -0.0003    constr:    0.0000
     atom:   42    charge:    0.8461    magn:    0.0003    constr:    0.0000
     atom:   43    charge:    0.8469    magn:   -0.0000    constr:    0.0000
     atom:   44    charge:    0.8470    magn:    0.0003    constr:    0.0000
     atom:   45    charge:    0.8477    magn:    0.0001    constr:    0.0000
     atom:   46    charge:    0.8483    magn:    0.0000    constr:    0.0000
     atom:   47    charge:    0.8507    magn:   -0.0001    constr:    0.0000
     atom:   48    charge:    0.8501    magn:    0.0001    constr:    0.0000
     atom:   49    charge:    0.8517    magn:   -0.0000    constr:    0.0000
     atom:   50    charge:    2.7553    magn:    0.0005    constr:    0.0000
     atom:   51    charge:    2.7566    magn:   -0.0001    constr:    0.0000
     atom:   52    charge:    2.7506    magn:    0.0029    constr:    0.0000
     atom:   53    charge:    2.7568    magn:    0.0000    constr:    0.0000
     atom:   54    charge:    2.7585    magn:    0.0001    constr:    0.0000
     atom:   55    charge:    2.7556    magn:   -0.0000    constr:    0.0000
     atom:   56    charge:    2.7565    magn:   -0.0001    constr:    0.0000
     atom:   57    charge:    2.7555    magn:    0.0003    constr:    0.0000
     atom:   58    charge:    2.7551    magn:    0.0040    constr:    0.0000
     atom:   59    charge:    2.7524    magn:    0.0066    constr:    0.0000
     atom:   60    charge:    2.7468    magn:    0.0125    constr:    0.0000
[...]
     atom:   84    charge:    2.7506    magn:    0.0029    constr:    0.0000
     atom:   85    charge:    2.7541    magn:    0.0004    constr:    0.0000
     atom:   86    charge:    2.7518    magn:   -0.0001    constr:    0.0000
     atom:   87    charge:    2.7557    magn:   -0.0000    constr:    0.0000
     atom:   88    charge:    2.7569    magn:    0.0002    constr:    0.0000
     atom:   89    charge:    2.7571    magn:    0.0003    constr:    0.0000
     atom:   90    charge:    2.7551    magn:    0.0040    constr:    0.0000
     atom:   91    charge:    2.7566    magn:   -0.0001    constr:    0.0000
     atom:   92    charge:    2.7559    magn:   -0.0001    constr:    0.0000
     atom:   93    charge:    2.7541    magn:    0.0004    constr:    0.0000
     atom:   94    charge:    2.7538    magn:    0.0001    constr:    0.0000
     atom:   95    charge:    2.7568    magn:   -0.0000    constr:    0.0000
     atom:   96    charge:    2.7573    magn:    0.0000    constr:    0.0000
     atom:   97    charge:    2.7556    magn:    0.0003    constr:    0.0000
     atom:   98    charge:    2.7553    magn:    0.0005    constr:    0.0000

     End of self-consistent calculation

 ------ SPIN UP ------------

          k = 0.0000 0.0000 0.0000 ( 50142 PWs)   bands (ev):

[...]

 ------ SPIN DOWN ----------

[...]

     highest occupied, lowest unoccupied level (ev):    -3.5858   -2.9107

!    total energy              =   -1939.49259529 Ry
     Harris-Foulkes estimate   =   -1939.49259549 Ry
     estimated scf accuracy    <       0.00000080 Ry

[...]

     convergence has been achieved in  12 iterations

     Using ACE for calculation of exact exchange

[...]

     EXX: now go back to refine exchange calculation

[...]

     total energy              =   -1715.13684857 Ry
     Harris-Foulkes estimate   =   -1715.13684763 Ry
     est. exchange err (dexx)  =       0.04359674 Ry
     - averaged Fock potential =     193.88233583 Ry
     + Fock energy (ACE)       =     -97.02476211 Ry

[...]

     total energy              =   -1715.14511711 Ry
     Harris-Foulkes estimate   =   -1715.14511748 Ry
     estimated scf accuracy    <       0.00000145 Ry

[...]

     iteration #  3     ecut=    30.00 Ry     beta= 0.70
     CG style diagonalization
     ethr =  3.71E-10,  avg # of iterations =  3.8

[...]

     total energy              =   -1715.14513688 Ry
     Harris-Foulkes estimate   =   -1715.14513336 Ry
     est. exchange err (dexx)  =       0.00000150 Ry
     - averaged Fock potential =     194.17696728 Ry
     + Fock energy (ACE)       =     -97.08932061 Ry

     EXX: now go back to refine exchange calculation

     Self-consistent Calculation

     iteration #  1     ecut=    30.00 Ry     beta= 0.70
     CG style diagonalization
     c_bands:  1 eigenvalues not converged
     c_bands:  1 eigenvalues not converged
     ethr =  3.71E-10,  avg # of iterations =  4.6

     negative rho (up, down):  2.078E+00 5.672E-03

     Magnetic moment per site:
     atom:    1    charge:    0.8198    magn:   -0.0000    constr:    0.0000
     atom:    2    charge:    0.8140    magn:    0.0002    constr:    0.0000
     atom:    3    charge:    0.8136    magn:    0.0004    constr:    0.0000
     atom:    4    charge:    0.8175    magn:   -0.0000    constr:    0.0000
     atom:    5    charge:    0.8189    magn:    0.0000    constr:    0.0000
     atom:    6    charge:    0.8185    magn:    0.0000    constr:    0.0000
     atom:    7    charge:    0.8196    magn:   -0.0000    constr:    0.0000
     atom:    8    charge:    0.8182    magn:    0.0000    constr:    0.0000
     atom:    9    charge:    0.8185    magn:   -0.0003    constr:    0.0000
     atom:   10    charge:    0.8061    magn:    0.0022    constr:    0.0000
     atom:   11    charge:    0.8159    magn:    0.0003    constr:    0.0000
     atom:   12    charge:    0.8201    magn:    0.0000    constr:    0.0000
     atom:   13    charge:    0.8185    magn:   -0.0000    constr:    0.0000
     atom:   14    charge:    0.8185    magn:    0.0000    constr:    0.0000
     atom:   15    charge:    0.8187    magn:   -0.0001    constr:    0.0000
     atom:   16    charge:    0.8221    magn:   -0.0001    constr:    0.0000
     atom:   17    charge:    0.8309    magn:    0.0015    constr:    0.0000
     atom:   18    charge:    0.8202    magn:    0.0059    constr:    0.0000
     atom:   19    charge:    0.8293    magn:   -0.0004    constr:    0.0000
     atom:   20    charge:    0.8201    magn:    0.0000    constr:    0.0000
     atom:   21    charge:    0.8189    magn:    0.0000    constr:    0.0000
     atom:   22    charge:    0.8162    magn:    0.0000    constr:    0.0000
     atom:   23    charge:    0.8119    magn:    0.0001    constr:    0.0000
     atom:   24    charge:    0.8126    magn:   -0.0016    constr:    0.0000
     atom:   25    charge:    1.5880    magn:   -0.0544    constr:    0.0000
     atom:   26    charge:    0.8203    magn:    0.0059    constr:    0.0000
     atom:   27    charge:    0.8159    magn:    0.0003    constr:    0.0000
     atom:   28    charge:    0.8175    magn:   -0.0000    constr:    0.0000
     atom:   29    charge:    0.8156    magn:    0.0000    constr:    0.0000
     atom:   30    charge:    0.8153    magn:   -0.0000    constr:    0.0000
     atom:   31    charge:    0.8155    magn:   -0.0004    constr:    0.0000
     atom:   32    charge:    0.8126    magn:   -0.0016    constr:    0.0000
     atom:   33    charge:    0.8309    magn:    0.0015    constr:    0.0000
     atom:   34    charge:    0.8062    magn:    0.0022    constr:    0.0000
     atom:   35    charge:    0.8136    magn:    0.0004    constr:    0.0000
     atom:   36    charge:    0.8150    magn:    0.0001    constr:    0.0000
     atom:   37    charge:    0.8142    magn:   -0.0000    constr:    0.0000
     atom:   38    charge:    0.8153    magn:   -0.0000    constr:    0.0000
     atom:   39    charge:    0.8119    magn:    0.0001    constr:    0.0000
     atom:   40    charge:    0.8221    magn:   -0.0001    constr:    0.0000
     atom:   41    charge:    0.8185    magn:   -0.0003    constr:    0.0000
     atom:   42    charge:    0.8140    magn:    0.0002    constr:    0.0000
     atom:   43    charge:    0.8149    magn:   -0.0000    constr:    0.0000
     atom:   44    charge:    0.8150    magn:    0.0001    constr:    0.0000
     atom:   45    charge:    0.8156    magn:    0.0000    constr:    0.0000
     atom:   46    charge:    0.8162    magn:    0.0000    constr:    0.0000
     atom:   47    charge:    0.8187    magn:   -0.0001    constr:    0.0000
     atom:   48    charge:    0.8182    magn:    0.0000    constr:    0.0000
     atom:   49    charge:    0.8198    magn:   -0.0000    constr:    0.0000
     atom:   50    charge:    2.7295    magn:    0.0003    constr:    0.0000
     atom:   51    charge:    2.7308    magn:   -0.0001    constr:    0.0000
     atom:   52    charge:    2.7248    magn:    0.0017    constr:    0.0000
     atom:   53    charge:    2.7311    magn:    0.0000    constr:    0.0000
     atom:   54    charge:    2.7328    magn:    0.0001    constr:    0.0000
     atom:   55    charge:    2.7298    magn:    0.0000    constr:    0.0000
     atom:   56    charge:    2.7306    magn:   -0.0000    constr:    0.0000
     atom:   57    charge:    2.7298    magn:    0.0002    constr:    0.0000
     atom:   58    charge:    2.7294    magn:    0.0027    constr:    0.0000
     atom:   59    charge:    2.7265    magn:    0.0064    constr:    0.0000
     atom:   60    charge:    2.7210    magn:    0.0103    constr:    0.0000
[...]
     atom:   84    charge:    2.7248    magn:    0.0017    constr:    0.0000
     atom:   85    charge:    2.7283    magn:    0.0002    constr:    0.0000
     atom:   86    charge:    2.7259    magn:   -0.0001    constr:    0.0000
     atom:   87    charge:    2.7299    magn:   -0.0000    constr:    0.0000
     atom:   88    charge:    2.7311    magn:    0.0001    constr:    0.0000
     atom:   89    charge:    2.7314    magn:    0.0003    constr:    0.0000
     atom:   90    charge:    2.7294    magn:    0.0027    constr:    0.0000
     atom:   91    charge:    2.7308    magn:   -0.0001    constr:    0.0000
     atom:   92    charge:    2.7301    magn:   -0.0000    constr:    0.0000
     atom:   93    charge:    2.7283    magn:    0.0002    constr:    0.0000
     atom:   94    charge:    2.7280    magn:    0.0000    constr:    0.0000
     atom:   95    charge:    2.7311    magn:   -0.0000    constr:    0.0000
     atom:   96    charge:    2.7316    magn:    0.0000    constr:    0.0000
     atom:   97    charge:    2.7298    magn:    0.0002    constr:    0.0000
     atom:   98    charge:    2.7295    magn:    0.0003    constr:    0.0000

     End of self-consistent calculation

 ------ SPIN UP ------------

[...]

 ------ SPIN DOWN ----------

          k = 0.0000 0.0000 0.0000 ( 50142 PWs)   bands (ev):

   -25.1244 -24.8946 -24.7010 -24.6935 -24.6742 -24.6128 -24.5599 -24.1055
   -23.8882 -23.8726 -23.8667 -23.7783 -23.7655 -23.6323 -23.4949 -23.4858
   -23.4746 -23.3173 -23.3068 -22.7140 -22.5115 -22.5104 -22.5049 -22.4935
   -22.4903 -22.4833 -22.4826 -22.4475 -22.4391 -22.2614 -22.2550 -22.1070
   -22.0515 -22.0499 -22.0278 -21.8311 -21.8281 -21.5818 -21.5707 -21.5593
   -21.5494 -21.4793 -21.4615 -21.4019 -21.3779 -21.3749 -21.3635 -19.8001
   -17.4101 -15.4580 -15.0986 -15.0918 -15.0816 -15.0424 -15.0356 -14.9565
   -14.8727 -14.8362 -14.8359 -14.7659 -14.7187 -14.4344 -14.3564 -14.3469
   -14.3120 -14.2500 -14.2326 -13.7365 -13.6140 -13.5952 -13.5765 -13.5668
   -13.5576 -13.5491 -13.5476 -13.5045 -13.4769 -13.2525 -13.1964 -12.9993
   -12.8112 -12.7982 -12.7675 -12.7598 -12.5906 -12.1032 -12.0719 -12.0357
   -11.9492 -11.8965 -11.8284 -11.3839 -11.3079 -11.2822 -11.2545 -11.2498
   -11.2474 -11.1864 -10.9834 -10.8572 -10.8489 -10.8165 -10.8105 -10.8011
   -10.7972 -10.7862 -10.7714 -10.7462 -10.7407 -10.7400 -10.7323 -10.7290
   -10.6919 -10.6859 -10.6708 -10.6578 -10.5975 -10.5815 -10.5545 -10.4842
   -10.3713 -10.3415 -10.0784 -10.0702 -10.0690 -10.0056  -9.9684  -9.7000
    -9.6519  -9.5417  -9.5292  -9.5182  -9.4188  -9.3984  -9.3285  -9.2731
    -9.2709  -9.2363  -9.2190  -9.2108  -9.1879  -9.1792  -9.1373  -9.1073
    -9.0421  -8.9813  -8.9802  -8.9773  -8.9663  -8.7934  -8.7917  -8.7584
    -8.7309  -8.6981  -8.6625  -8.4895  -8.3241  -8.1984  -7.8170  -7.7941
    -7.7873  -7.7328  -7.7267  -7.5332  -7.5259  -7.5244  -7.5138  -7.5106
    -7.5012  -7.4867  -7.4524  -7.4525  -7.3901  -7.2622  -7.2434  -7.1934
    -6.9114  -6.8395  -6.8333  -6.8160  -6.6201  -6.6200  -6.6126  -6.5413
    -6.1008  -6.0831  -6.0637  -6.0612  -5.9434  -5.9418  -5.8268  -5.7862
    -5.7812  -5.7724  -5.2209  -2.1279  -0.0049   0.3371   0.5567   0.6338
     0.6358   0.6373   0.6460   0.6522   0.6779   0.9321   0.9716   0.9734
     0.9745   0.9833   0.9891   1.1573   1.1970   1.1998   1.2013   1.2093
     1.2162   1.2437   1.6344   1.7349   1.7426   1.7545   1.7844   1.7866
     1.8596   1.9348   1.9370   1.9375   1.9419   1.9477   1.9516   1.9663
     1.9920   2.0081   2.0169   2.0468   2.0917   2.1836   2.2494   2.2511
     2.2546   2.2549   2.2840   2.3019   2.3154

     highest occupied, lowest unoccupied level (ev):    -4.7591   -2.1279

!    total energy              =   -1715.14513784 Ry
     Harris-Foulkes estimate   =   -1715.14513787 Ry
     estimated scf accuracy    <       0.00000036 Ry

     total magnetization       =     1.00 Bohr mag/cell
     absolute magnetization    =     1.42 Bohr mag/cell

     convergence has been achieved in   1 iterations

     Using ACE for calculation of exact exchange

!!   total energy              =   -1715.14513821 Ry
     Harris-Foulkes estimate   =   -1715.14513825 Ry
     est. exchange err (dexx)  =       0.00000037 Ry
     - averaged Fock potential =     194.17796277 Ry
     + Fock energy (ACE)       =     -97.08864253 Ry

     EXX self-consistency reached

     Writing output data file C2Cn.save/

     General routines

     Parallel routines

     EXX routines

     EXX+US  routines

     EXX+PAW routines

   This run was terminated on:  19: 6:27  21Sep2021

   JOB DONE.