     Program PWSCF v.6.4.1 starts on  6Jun2021 at 22:51:27

     R & G space division:  proc/nbgrp/npool/nimage =      64
     Waiting for input...
     Reading input from standard input

     Current dimensions of program PWSCF are:
     Max number of different atomic species (ntypx) = 10
     Max number of k-points (npk) =  40000
     Max angular momentum in pseudopotentials (lmaxx) =  3

     IMPORTANT: XC functional enforced from input :
     Exchange-correlation      = HSE ( 1  4 12  4 0 0)
     EXX-fraction              =        0.25
     Any further DFT definition will be discarded
     Please, verify this is what you really want

               file N.pbe-n-kjpaw_psl.1.0.0.UPF: wavefunction(s)  2S renormalized
     EXX fraction changed:   0.32
     EXX Screening parameter changed:    0.0455000

     Parameters for DFT-D3 Dispersion Correction:
       Reference C6 values for interpolation:

         atom   Coordination number   C6
         B          0.000           214.36
         B          0.971           150.74
         B          1.944           106.23
         B          2.913            62.89
         B          4.586            56.06
         N          0.000            50.54
         N          0.994            44.25
         N          2.014            39.35
         N          2.990            31.16

       Values used:

         atom   Coordination number  R0_AB[au]  C6      C8
         B          3.323            3.039     62.90   2506.30
         B          3.323            3.039     62.90   2506.30
         B          3.323            3.039     62.90   2506.30
         B          3.323            3.039     62.90   2506.31
         B          3.323            3.039     62.90   2506.30
         B          3.323            3.039     62.90   2506.30
         B          3.323            3.039     62.90   2506.30
         B          3.323            3.039     62.90   2506.30
         B          3.323            3.039     62.90   2506.30
         B          3.323            3.039     62.90   2506.30
         B          3.323            3.039     62.90   2506.30
         B          3.323            3.039     62.90   2506.30
         B          3.323            3.039     62.90   2506.30
         B          3.323            3.039     62.90   2506.30
         B          3.323            3.039     62.90   2506.30
         B          3.323            3.039     62.90   2506.30
         B          3.323            3.039     62.90   2506.30
         B          3.323            3.039     62.90   2506.30
         B          3.323            3.039     62.90   2506.30
         B          3.323            3.039     62.90   2506.30
         B          3.323            3.039     62.90   2506.30
         B          3.323            3.039     62.90   2506.30
         B          3.323            3.039     62.90   2506.30
         B          3.323            3.039     62.90   2506.30
         B          3.323            3.039     62.90   2506.31
         B          3.323            3.039     62.90   2506.30
         B          3.323            3.039     62.90   2506.30
         B          3.323            3.039     62.90   2506.31
         B          3.323            3.039     62.90   2506.30
         B          3.323            3.039     62.90   2506.30
         B          3.323            3.039     62.90   2506.30
         B          3.323            3.039     62.90   2506.30
         B          3.323            3.039     62.90   2506.30
         B          3.323            3.039     62.90   2506.30
         B          3.323            3.039     62.90   2506.30
         B          3.323            3.039     62.90   2506.30
         B          3.323            3.039     62.90   2506.30
         B          3.323            3.039     62.90   2506.30
         B          3.323            3.039     62.90   2506.30
         B          3.323            3.039     62.90   2506.30
         B          3.323            3.039     62.90   2506.30
         B          3.323            3.039     62.90   2506.30
         B          3.323            3.039     62.90   2506.30
         B          3.323            3.039     62.90   2506.30
         B          3.323            3.039     62.90   2506.30
         B          3.323            3.039     62.90   2506.30
         B          3.323            3.039     62.90   2506.30
         B          3.323            3.039     62.90   2506.30
         B          3.323            3.039     62.90   2506.30
         N          3.129            2.478     31.22    688.75
         N          3.129            2.478     31.22    688.75
         N          3.129            2.478     31.22    688.75
         N          3.129            2.478     31.22    688.75
         N          3.129            2.478     31.22    688.75
         N          3.129            2.478     31.22    688.75
         N          3.129            2.478     31.22    688.75
         N          3.129            2.478     31.22    688.75
         N          3.129            2.478     31.22    688.75
         N          3.129            2.478     31.22    688.75
         N          3.129            2.478     31.22    688.75
[...]
         N          3.129            2.478     31.22    688.75
         N          3.129            2.478     31.22    688.75
         N          3.129            2.478     31.22    688.75
         N          3.129            2.478     31.22    688.75
         N          3.129            2.478     31.22    688.75
         N          3.129            2.478     31.22    688.75
         N          3.129            2.478     31.22    688.75
         N          3.129            2.478     31.22    688.75
         N          3.129            2.478     31.22    688.75
         N          3.129            2.478     31.22    688.75
         N          3.129            2.478     31.22    688.75
         N          3.129            2.478     31.22    688.75
         N          3.129            2.478     31.22    688.75
         N          3.129            2.478     31.22    688.75
         N          3.129            2.478     31.22    688.75

         Molecular C6 ( Ry / a.u.^6 ) =    434808.12

     Message from routine setup :
     BEWARE: nonlinear core correction is not consistent with hybrid XC

     Found symmetry operation: I + ( -0.0000 -0.4286  0.0000)
     This is a supercell, fractional translations are disabled
     EXX: grid of k+q points same as grid of k-points

     bravais-lattice index     =            0
     lattice parameter (alat)  =      33.2346  a.u.
     unit-cell volume          =   36104.5892 (a.u.)^3
     number of atoms/cell      =           98
     number of atomic types    =            2
     number of electrons       =       392.00
     number of Kohn-Sham states=          200
     kinetic-energy cutoff     =      40.0000  Ry
     charge density cutoff     =     160.0000  Ry
     cutoff for Fock operator  =     160.0000  Ry
     convergence threshold     =      1.0E-06
     mixing beta               =       0.7000
     number of iterations used =            8  plain     mixing
     Exchange-correlation      = HSE ( 1  4 12  4 0 0)
     EXX-fraction              =        0.32

     celldm(1)=  33.234611  celldm(2)=   0.000000  celldm(3)=   0.000000
     celldm(4)=   0.000000  celldm(5)=   0.000000  celldm(6)=   0.000000

     crystal axes: (cart. coord. in units of alat)
               a(1) = (   0.999334   0.000000   0.000000 )
               a(2) = (  -0.499667   0.865449   0.000000 )
               a(3) = (   0.000000   0.000000   1.137204 )

     reciprocal axes: (cart. coord. in units 2 pi/alat)
               b(1) = (  1.000666  0.577735  0.000000 )
               b(2) = (  0.000000  1.155470  0.000000 )
               b(3) = (  0.000000  0.000000  0.879350 )

     PseudoPot. # 1 for B  read from file:
     ./pseudo/B.pbe-n-kjpaw_psl.1.0.0.UPF
     MD5 check sum: 8c825a5969375aca5c2c6ad5945b3059
     Pseudo is Projector augmented-wave + core cor, Zval =  3.0
     Generated using "atomic" code by A. Dal Corso v.6.3
     Shape of augmentation charge: PSQ
     Using radial grid of 1059 points,  4 beta functions with:
                l(1) =   0
                l(2) =   0
                l(3) =   1
                l(4) =   1
     Q(r) pseudized with 0 coefficients

     PseudoPot. # 2 for N  read from file:
     ./pseudo/N.pbe-n-kjpaw_psl.1.0.0.UPF
     MD5 check sum: 14c48229446f9f2d411169a3abcbc3fa
     Pseudo is Projector augmented-wave + core cor, Zval =  5.0
     Generated using "atomic" code by A. Dal Corso v.6.3
     Shape of augmentation charge: PSQ
     Using radial grid of 1085 points,  4 beta functions with:
                l(1) =   0
                l(2) =   0
                l(3) =   1
                l(4) =   1
     Q(r) pseudized with 0 coefficients

     atomic species   valence    mass     pseudopotential
        B              3.00    10.00000     B ( 1.00)
        N              5.00    14.00000     N ( 1.00)

     No symmetry found

   Cartesian axes

     site n.     atom                  positions (alat units)
         1           B   tau(   1) = (  -0.0000000   0.0824309   0.5686018  )
         2           B   tau(   2) = (  -0.0713829   0.2060622   0.5686018  )
         3           B   tau(   3) = (  -0.1427568   0.3296890   0.5686018  )
         4           B   tau(   4) = (  -0.2141395   0.4533331   0.5686018  )
         5           B   tau(   5) = (  -0.2855266   0.5769736   0.5686018  )
         6           B   tau(   6) = (  -0.3569036   0.7005986   0.5686018  )
         7           B   tau(   7) = (  -0.4282799   0.8242336   0.5686018  )
         8           B   tau(   8) = (   0.1427700   0.0824283   0.5686018  )
         9           B   tau(   9) = (   0.0713829   0.2060622   0.5686018  )
        10           B   tau(  10) = (  -0.0000000   0.3296942   0.5686018  )
        11           B   tau(  11) = (  -0.0713745   0.4533335   0.5686018  )
        12           B   tau(  12) = (  -0.1427567   0.5769711   0.5686018  )
        13           B   tau(  13) = (  -0.2141437   0.7006019   0.5686018  )
        14           B   tau(  14) = (  -0.2855207   0.8242373   0.5686018  )
        15           B   tau(  15) = (   0.2855205   0.0824268   0.5686018  )
        16           B   tau(  16) = (   0.2141440   0.2060546   0.5686018  )
        17           B   tau(  17) = (   0.1427568   0.3296890   0.5686018  )
        18           B   tau(  18) = (   0.0713735   0.4533335   0.5686018  )
        19           B   tau(  19) = (  -0.0000005   0.5769663   0.5686018  )
        20           B   tau(  20) = (  -0.0713827   0.7005944   0.5686018  )
        21           B   tau(  21) = (  -0.1427698   0.8242355   0.5686018  )
        22           B   tau(  22) = (   0.4282797   0.0824299   0.5686018  )
        23           B   tau(  23) = (   0.3569027   0.2060579   0.5686018  )
        24           B   tau(  24) = (   0.2855263   0.3296861   0.5686018  )
        25           B   tau(  25) = (   0.2141385   0.4533331   0.5686018  )
        26           B   tau(  26) = (   0.1427557   0.5769711   0.5686018  )
        27           B   tau(  27) = (   0.0713817   0.7005944   0.5686018  )
        28           B   tau(  28) = (  -0.0000005   0.8242327   0.5686018  )
        29           B   tau(  29) = (   0.5710548   0.0824299   0.5686018  )
        30           B   tau(  30) = (   0.4996677   0.2060636   0.5686018  )
        31           B   tau(  31) = (   0.4282907   0.3296923   0.5686018  )
        32           B   tau(  32) = (   0.3569138   0.4533330   0.5686018  )
        33           B   tau(  33) = (   0.2855266   0.5769736   0.5686018  )
        34           B   tau(  34) = (   0.2141437   0.7006019   0.5686018  )
        35           B   tau(  35) = (   0.1427698   0.8242355   0.5686018  )
        36           B   tau(  36) = (   0.7138140   0.0824268   0.5686018  )
        37           B   tau(  37) = (   0.6424318   0.2060579   0.5686018  )
        38           B   tau(  38) = (   0.5710448   0.3296923   0.5686018  )
        39           B   tau(  39) = (   0.4996672   0.4533333   0.5686018  )
        40           B   tau(  40) = (   0.4282907   0.5769676   0.5686018  )
        41           B   tau(  41) = (   0.3569036   0.7005986   0.5686018  )
        42           B   tau(  42) = (   0.2855207   0.8242373   0.5686018  )
        43           B   tau(  43) = (   0.8565645   0.0824283   0.5686018  )
        44           B   tau(  44) = (   0.7851905   0.2060546   0.5686018  )
        45           B   tau(  45) = (   0.7138082   0.3296861   0.5686018  )
        46           B   tau(  46) = (   0.6424207   0.4533330   0.5686018  )
        47           B   tau(  47) = (   0.5710438   0.5769676   0.5686018  )
        48           B   tau(  48) = (   0.4996672   0.7005925   0.5686018  )
        49           B   tau(  49) = (   0.4282799   0.8242336   0.5686018  )
        50           N   tau(  50) = (   0.0713853   0.0412143   0.5686018  )
        51           N   tau(  51) = (   0.0000000   0.1648537   0.5686018  )
        52           N   tau(  52) = (  -0.0713781   0.2884819   0.5686018  )
        53           N   tau(  53) = (  -0.1427563   0.4121169   0.5686018  )
        54           N   tau(  54) = (  -0.2141417   0.5357601   0.5686018  )
        55           N   tau(  55) = (  -0.2855237   0.6593929   0.5686018  )
        56           N   tau(  56) = (  -0.3568998   0.7830222   0.5686018  )
        57           N   tau(  57) = (   0.2141455   0.0412121   0.5686018  )
        58           N   tau(  58) = (   0.1427635   0.1648494   0.5686018  )
        59           N   tau(  59) = (   0.0713781   0.2884819   0.5686018  )
        60           N   tau(  60) = (   0.0000000   0.4121169   0.5686018  )
[...]
        84           N   tau(  84) = (   0.2141456   0.7830234   0.5686018  )
        85           N   tau(  85) = (   0.7851890   0.0412121   0.5686018  )
        86           N   tau(  86) = (   0.7138108   0.1648472   0.5686018  )
        87           N   tau(  87) = (   0.6424259   0.2884793   0.5686018  )
        88           N   tau(  88) = (   0.5710439   0.4121166   0.5686018  )
        89           N   tau(  89) = (   0.4996672   0.5357547   0.5686018  )
        90           N   tau(  90) = (   0.4282852   0.6593876   0.5686018  )
        91           N   tau(  91) = (   0.3568998   0.7830222   0.5686018  )
        92           N   tau(  92) = (   0.9279491   0.0412143   0.5686018  )
        93           N   tau(  93) = (   0.8565710   0.1648494   0.5686018  )
        94           N   tau(  94) = (   0.7851929   0.2884777   0.5686018  )
        95           N   tau(  95) = (   0.7138080   0.4121166   0.5686018  )
        96           N   tau(  96) = (   0.6424255   0.5357581   0.5686018  )
        97           N   tau(  97) = (   0.5710493   0.6593876   0.5686018  )
        98           N   tau(  98) = (   0.4996672   0.7830203   0.5686018  )

     number of k points=     1
                       cart. coord. in units 2pi/alat
        k(    1) = (   0.6671106   0.7703130   0.0000000), wk =   2.0000000

     Check: negative core charge=   -0.000006

     Initial potential from superposition of free atoms

     starting charge  391.98580, renormalised to  392.00000

     negative rho (up, down):  5.410E-02 0.000E+00
     Starting wfcs are  392 randomized atomic wfcs

     Self-consistent Calculation

     iteration #  1     ecut=    40.00 Ry     beta= 0.70
     Davidson diagonalization with overlap
     ethr =  1.00E-02,  avg # of iterations =  2.0

     negative rho (up, down):  3.302E-01 0.000E+00

     total energy              =   -1945.85921107 Ry
     Harris-Foulkes estimate   =   -1960.10066527 Ry
     estimated scf accuracy    <      21.02190679 Ry

[...]

     End of self-consistent calculation

          k = 0.6671 0.7703 0.0000 (154200 PWs)   bands (ev):

   -21.6721 -21.5427 -21.4143 -21.4143 -21.1613 -21.1613 -21.0369 -20.9134
   -20.9134 -20.6728 -20.5532 -20.5531 -20.4380 -20.4380 -20.2071 -20.2070
   -19.9942 -19.9941 -19.7892 -19.7759 -19.7758 -19.6815 -19.6814 -19.3781
   -19.3781 -19.3289 -19.2292 -19.2292 -19.0932 -19.0932 -18.9549 -18.9548
   -18.9089 -18.9088 -18.7641 -18.7641 -18.6923 -18.6071 -18.6071 -18.6007
   -18.6006 -18.5963 -18.5963 -18.3850 -18.3849 -18.3311 -18.3311 -18.1497
   -18.1496 -12.8990 -12.7963 -12.7963 -12.7253 -12.7253 -12.5346 -12.5345
   -12.4976 -12.4976 -12.2025 -12.2025 -12.1814 -12.1814 -12.0858 -12.0858
   -12.0386 -12.0385 -11.8884 -11.8884 -11.8287 -11.7671 -11.7671 -11.6535
   -11.6535 -10.9979 -10.9979 -10.9705 -10.9704 -10.9501 -10.9271 -10.9271
   -10.5057 -10.5057 -10.4624 -10.4624 -10.4073 -10.4073 -10.1409 -10.1409
    -9.8621  -9.8621  -9.6511  -9.6510  -9.4859  -9.4859  -9.4525  -9.4525
    -9.2288  -9.2067  -9.2066  -9.0991  -9.0991  -9.0543  -9.0504  -9.0504
    -9.0232  -9.0232  -8.9165  -8.8811  -8.8810  -8.7114  -8.7114  -8.5388
    -8.5387  -8.4297  -8.4297  -8.4242  -8.4242  -8.3700  -8.3085  -8.3085
    -8.2122  -8.2021  -8.2021  -8.1691  -8.1691  -8.1446  -8.1446  -8.0959
    -8.0959  -7.9723  -7.9723  -7.9366  -7.8876  -7.8735  -7.7102  -7.7101
    -7.6711  -7.6352  -7.6352  -7.5517  -7.5516  -7.4570  -7.4570  -7.3578
    -7.3577  -7.2633  -7.2632  -7.2338  -7.2338  -6.9441  -6.9365  -6.9365
    -6.8880  -6.8880  -6.6484  -6.6326  -6.6325  -6.6102  -6.6102  -6.5264
    -6.4979  -6.4978  -6.4158  -6.4158  -6.1516  -6.0689  -6.0689  -6.0132
    -6.0131  -5.9898  -5.8480  -5.8480  -5.7639  -5.6443  -5.6443  -5.6215
    -5.5203  -5.4511  -5.4511  -5.3775  -5.3774  -5.1444  -5.1444  -5.0297
    -4.9167  -4.9166  -4.9035  -4.9035  -4.8958  -4.8957  -4.5662  -4.5662
    -4.4873  -4.4873  -4.1897  -4.1897   0.1816   0.4015   0.6891   0.6892

     highest occupied, lowest unoccupied level (ev):    -4.1897    0.1816

!    total energy              =   -1953.52504107 Ry
     Harris-Foulkes estimate   =   -1953.52504175 Ry
     estimated scf accuracy    <       0.00000082 Ry

     convergence has been achieved in   9 iterations

     Using ACE for calculation of exact exchange

[...]

     EXX: now go back to refine exchange calculation

[...]

     total energy              =   -1728.75209176 Ry
     Harris-Foulkes estimate   =   -1728.75209083 Ry
     est. exchange err (dexx)  =       0.04529819 Ry
     - averaged Fock potential =     195.30448343 Ry
     + Fock energy (ACE)       =     -97.72908457 Ry

[...]

     iteration #  1     ecut=    40.00 Ry     beta= 0.70
     Davidson diagonalization with overlap
     c_bands:  2 eigenvalues not converged
     ethr =  5.05E-10,  avg # of iterations = 20.0

[...]

     total energy              =   -1728.76156348 Ry
     Harris-Foulkes estimate   =   -1728.76156312 Ry
     estimated scf accuracy    <       0.00000250 Ry

[...]

     total energy              =   -1728.76159189 Ry
     Harris-Foulkes estimate   =   -1728.76158370 Ry
     est. exchange err (dexx)  =       0.00000142 Ry
     - averaged Fock potential =     195.60316960 Ry
     + Fock energy (ACE)       =     -97.80264546 Ry

     EXX: now go back to refine exchange calculation

     Self-consistent Calculation

     iteration #  1     ecut=    40.00 Ry     beta= 0.70
     Davidson diagonalization with overlap
     ethr =  6.37E-10,  avg # of iterations =  3.0

     negative rho (up, down):  5.825E-01 0.000E+00

     End of self-consistent calculation

          k = 0.6671 0.7703 0.0000 (154200 PWs)   bands (ev):

   -24.9548 -24.8120 -24.6704 -24.6704 -24.3913 -24.3913 -24.2541 -24.1177
   -24.1177 -23.8522 -23.7201 -23.7200 -23.5929 -23.5928 -23.3379 -23.3379
   -23.1025 -23.1024 -22.8759 -22.8617 -22.8616 -22.7572 -22.7571 -22.4224
   -22.4224 -22.3676 -22.2576 -22.2576 -22.1075 -22.1075 -21.9549 -21.9549
   -21.9040 -21.9040 -21.7443 -21.7443 -21.6653 -21.5709 -21.5709 -21.5636
   -21.5635 -21.5588 -21.5588 -21.3252 -21.3252 -21.2654 -21.2654 -21.0645
   -21.0644 -15.2182 -15.1059 -15.1059 -15.0256 -15.0255 -14.8184 -14.8184
   -14.7820 -14.7820 -14.4633 -14.4633 -14.4213 -14.4213 -14.3481 -14.3481
   -14.2689 -14.2688 -14.1151 -14.1151 -14.0288 -13.9638 -13.9638 -13.8479
   -13.8479 -13.1202 -13.1202 -13.0585 -13.0585 -13.0540 -13.0321 -13.0321
   -12.5692 -12.5692 -12.5144 -12.5144 -12.4531 -12.4531 -12.1604 -12.1604
   -11.8629 -11.8629 -11.6216 -11.6216 -11.4459 -11.4458 -11.3962 -11.3962
   -11.1645 -11.1493 -11.1493 -11.0182 -11.0182 -10.9750 -10.9750 -10.9658
   -10.9237 -10.9236 -10.8025 -10.7683 -10.7683 -10.6137 -10.6137 -10.3781
   -10.3781 -10.2918 -10.2918 -10.2844 -10.2844 -10.1857 -10.1775 -10.1775
   -10.0759 -10.0206 -10.0206  -9.9942  -9.9942  -9.9794  -9.9793  -9.8986
    -9.8986  -9.7774  -9.7774  -9.7658  -9.6657  -9.6194  -9.4683  -9.4328
    -9.4328  -9.4229  -9.4228  -9.2517  -9.2517  -9.1917  -9.1917  -9.1030
    -9.1030  -9.0076  -9.0076  -8.8886  -8.8885  -8.6561  -8.5815  -8.5815
    -8.5484  -8.5483  -8.2601  -8.2601  -8.2192  -8.2009  -8.2009  -8.1901
    -8.0633  -8.0633  -8.0474  -8.0474  -7.7571  -7.6164  -7.6164  -7.5569
    -7.5569  -7.4712  -7.3421  -7.3092  -7.3092  -7.1805  -7.0823  -7.0822
    -7.0730  -6.8566  -6.8566  -6.7775  -6.7775  -6.5289  -6.5289  -6.4058
    -6.2621  -6.2621  -6.2569  -6.2569  -6.2460  -6.2460  -5.8810  -5.8810
    -5.7870  -5.7870  -5.4618  -5.4618   0.5312   0.7496   0.9165   0.9672

     highest occupied, lowest unoccupied level (ev):    -5.4618    0.5312

!    total energy              =   -1728.76159394 Ry
     Harris-Foulkes estimate   =   -1728.76159242 Ry
     estimated scf accuracy    <       0.00000028 Ry

     convergence has been achieved in   1 iterations

     Using ACE for calculation of exact exchange

!!   total energy              =   -1728.76159409 Ry
     Harris-Foulkes estimate   =   -1728.76159257 Ry
     est. exchange err (dexx)  =       0.00000014 Ry
     - averaged Fock potential =     195.60436930 Ry
     + Fock energy (ACE)       =     -97.80172398 Ry

     EXX self-consistency reached

     Writing output data file hBN.save/

     General routines

     Parallel routines

     EXX routines

     EXX+US  routines

     EXX+PAW routines

   This run was terminated on:  18:36:26   7Jun2021

   JOB DONE.